*HEADING
jetsuite2 turbine disc, axisymmetric (X = radius, Y = axis), SI units
*NODE
1, 7.5000000e-03, 1.8073542e-01, 0.0
2, 8.0000000e-03, 1.8073542e-01, 0.0
3, 8.0000000e-03, 1.8123542e-01, 0.0
4, 7.5000000e-03, 1.8123542e-01, 0.0
5, 8.5000000e-03, 1.8073542e-01, 0.0
6, 8.5000000e-03, 1.8123542e-01, 0.0
7, 9.0000000e-03, 1.8073542e-01, 0.0
8, 9.0000000e-03, 1.8123542e-01, 0.0
9, 9.5000000e-03, 1.8073542e-01, 0.0
10, 9.5000000e-03, 1.8123542e-01, 0.0
11, 1.0000000e-02, 1.8073542e-01, 0.0
12, 1.0000000e-02, 1.8123542e-01, 0.0
13, 1.0500000e-02, 1.8073542e-01, 0.0
14, 1.0500000e-02, 1.8123542e-01, 0.0
15, 1.1000000e-02, 1.8073542e-01, 0.0
16, 1.1000000e-02, 1.8123542e-01, 0.0
17, 1.1500000e-02, 1.8073542e-01, 0.0
18, 1.1500000e-02, 1.8123542e-01, 0.0
19, 1.2000000e-02, 1.8073542e-01, 0.0
20, 1.2000000e-02, 1.8123542e-01, 0.0
21, 1.2500000e-02, 1.8073542e-01, 0.0
22, 1.2500000e-02, 1.8123542e-01, 0.0
23, 1.3000000e-02, 1.8073542e-01, 0.0
24, 1.3000000e-02, 1.8123542e-01, 0.0
25, 1.3353586e-02, 1.8073542e-01, 0.0
26, 1.3353586e-02, 1.8123542e-01, 0.0
27, 8.0000000e-03, 1.8173542e-01, 0.0
28, 7.5000000e-03, 1.8173542e-01, 0.0
29, 8.5000000e-03, 1.8173542e-01, 0.0
30, 9.0000000e-03, 1.8173542e-01, 0.0
31, 9.5000000e-03, 1.8173542e-01, 0.0
32, 1.0000000e-02, 1.8173542e-01, 0.0
33, 1.0500000e-02, 1.8173542e-01, 0.0
34, 1.1000000e-02, 1.8173542e-01, 0.0
35, 1.1500000e-02, 1.8173542e-01, 0.0
36, 1.2000000e-02, 1.8173542e-01, 0.0
37, 1.2500000e-02, 1.8173542e-01, 0.0
38, 1.3000000e-02, 1.8173542e-01, 0.0
39, 1.3353586e-02, 1.8173542e-01, 0.0
40, 8.0000000e-03, 1.8223542e-01, 0.0
41, 7.5000000e-03, 1.8223542e-01, 0.0
42, 8.5000000e-03, 1.8223542e-01, 0.0
43, 9.0000000e-03, 1.8223542e-01, 0.0
44, 9.5000000e-03, 1.8223542e-01, 0.0
45, 1.0000000e-02, 1.8223542e-01, 0.0
46, 1.0500000e-02, 1.8223542e-01, 0.0
47, 1.1000000e-02, 1.8223542e-01, 0.0
48, 1.1500000e-02, 1.8223542e-01, 0.0
49, 1.2000000e-02, 1.8223542e-01, 0.0
50, 1.2500000e-02, 1.8223542e-01, 0.0
51, 1.3000000e-02, 1.8223542e-01, 0.0
52, 1.3353586e-02, 1.8223542e-01, 0.0
53, 1.3500000e-02, 1.8173542e-01, 0.0
54, 1.3500000e-02, 1.8223542e-01, 0.0
55, 8.0000000e-03, 1.8273542e-01, 0.0
56, 7.5000000e-03, 1.8273542e-01, 0.0
57, 8.5000000e-03, 1.8273542e-01, 0.0
58, 9.0000000e-03, 1.8273542e-01, 0.0
59, 9.5000000e-03, 1.8273542e-01, 0.0
60, 1.0000000e-02, 1.8273542e-01, 0.0
61, 1.0500000e-02, 1.8273542e-01, 0.0
62, 1.1000000e-02, 1.8273542e-01, 0.0
63, 1.1500000e-02, 1.8273542e-01, 0.0
64, 1.2000000e-02, 1.8273542e-01, 0.0
65, 1.2500000e-02, 1.8273542e-01, 0.0
66, 1.3000000e-02, 1.8273542e-01, 0.0
67, 1.3353586e-02, 1.8273542e-01, 0.0
68, 1.3500000e-02, 1.8273542e-01, 0.0
69, 8.0000000e-03, 1.8323542e-01, 0.0
70, 7.5000000e-03, 1.8323542e-01, 0.0
71, 8.5000000e-03, 1.8323542e-01, 0.0
72, 9.0000000e-03, 1.8323542e-01, 0.0
73, 9.5000000e-03, 1.8323542e-01, 0.0
74, 1.0000000e-02, 1.8323542e-01, 0.0
75, 1.0500000e-02, 1.8323542e-01, 0.0
76, 1.1000000e-02, 1.8323542e-01, 0.0
77, 1.1500000e-02, 1.8323542e-01, 0.0
78, 1.2000000e-02, 1.8323542e-01, 0.0
79, 1.2500000e-02, 1.8323542e-01, 0.0
80, 1.3000000e-02, 1.8323542e-01, 0.0
81, 1.3353586e-02, 1.8323542e-01, 0.0
82, 1.3500000e-02, 1.8323542e-01, 0.0
83, 8.0000000e-03, 1.8373542e-01, 0.0
84, 7.5000000e-03, 1.8373542e-01, 0.0
85, 8.5000000e-03, 1.8373542e-01, 0.0
86, 9.0000000e-03, 1.8373542e-01, 0.0
87, 9.5000000e-03, 1.8373542e-01, 0.0
88, 1.0000000e-02, 1.8373542e-01, 0.0
89, 1.0500000e-02, 1.8373542e-01, 0.0
90, 1.1000000e-02, 1.8373542e-01, 0.0
91, 1.1500000e-02, 1.8373542e-01, 0.0
92, 1.2000000e-02, 1.8373542e-01, 0.0
93, 1.2500000e-02, 1.8373542e-01, 0.0
94, 1.3000000e-02, 1.8373542e-01, 0.0
95, 1.3353586e-02, 1.8373542e-01, 0.0
96, 1.3500000e-02, 1.8373542e-01, 0.0
97, 8.0000000e-03, 1.8423542e-01, 0.0
98, 7.5000000e-03, 1.8423542e-01, 0.0
99, 8.5000000e-03, 1.8423542e-01, 0.0
100, 9.0000000e-03, 1.8423542e-01, 0.0
101, 9.5000000e-03, 1.8423542e-01, 0.0
102, 1.0000000e-02, 1.8423542e-01, 0.0
103, 1.0500000e-02, 1.8423542e-01, 0.0
104, 1.1000000e-02, 1.8423542e-01, 0.0
105, 1.1500000e-02, 1.8423542e-01, 0.0
106, 1.2000000e-02, 1.8423542e-01, 0.0
107, 1.2500000e-02, 1.8423542e-01, 0.0
108, 1.3000000e-02, 1.8423542e-01, 0.0
109, 1.3353586e-02, 1.8423542e-01, 0.0
110, 1.3500000e-02, 1.8423542e-01, 0.0
111, 8.0000000e-03, 1.8473542e-01, 0.0
112, 7.5000000e-03, 1.8473542e-01, 0.0
113, 8.5000000e-03, 1.8473542e-01, 0.0
114, 9.0000000e-03, 1.8473542e-01, 0.0
115, 9.5000000e-03, 1.8473542e-01, 0.0
116, 1.0000000e-02, 1.8473542e-01, 0.0
117, 1.0500000e-02, 1.8473542e-01, 0.0
118, 1.1000000e-02, 1.8473542e-01, 0.0
119, 1.1500000e-02, 1.8473542e-01, 0.0
120, 1.2000000e-02, 1.8473542e-01, 0.0
121, 1.2500000e-02, 1.8473542e-01, 0.0
122, 1.3000000e-02, 1.8473542e-01, 0.0
123, 1.3353586e-02, 1.8473542e-01, 0.0
124, 1.3500000e-02, 1.8473542e-01, 0.0
125, 8.0000000e-03, 1.8523542e-01, 0.0
126, 7.5000000e-03, 1.8523542e-01, 0.0
127, 8.5000000e-03, 1.8523542e-01, 0.0
128, 9.0000000e-03, 1.8523542e-01, 0.0
129, 9.5000000e-03, 1.8523542e-01, 0.0
130, 1.0000000e-02, 1.8523542e-01, 0.0
131, 1.0500000e-02, 1.8523542e-01, 0.0
132, 1.1000000e-02, 1.8523542e-01, 0.0
133, 1.1500000e-02, 1.8523542e-01, 0.0
134, 1.2000000e-02, 1.8523542e-01, 0.0
135, 1.2500000e-02, 1.8523542e-01, 0.0
136, 1.3000000e-02, 1.8523542e-01, 0.0
137, 1.3353586e-02, 1.8523542e-01, 0.0
138, 1.3500000e-02, 1.8523542e-01, 0.0
139, 8.0000000e-03, 1.8573542e-01, 0.0
140, 7.5000000e-03, 1.8573542e-01, 0.0
141, 8.5000000e-03, 1.8573542e-01, 0.0
142, 9.0000000e-03, 1.8573542e-01, 0.0
143, 9.5000000e-03, 1.8573542e-01, 0.0
144, 1.0000000e-02, 1.8573542e-01, 0.0
145, 1.0500000e-02, 1.8573542e-01, 0.0
146, 1.1000000e-02, 1.8573542e-01, 0.0
147, 1.1500000e-02, 1.8573542e-01, 0.0
148, 1.2000000e-02, 1.8573542e-01, 0.0
149, 1.2500000e-02, 1.8573542e-01, 0.0
150, 1.3000000e-02, 1.8573542e-01, 0.0
151, 1.3353586e-02, 1.8573542e-01, 0.0
152, 1.3500000e-02, 1.8573542e-01, 0.0
153, 8.0000000e-03, 1.8623542e-01, 0.0
154, 7.5000000e-03, 1.8623542e-01, 0.0
155, 8.5000000e-03, 1.8623542e-01, 0.0
156, 9.0000000e-03, 1.8623542e-01, 0.0
157, 9.5000000e-03, 1.8623542e-01, 0.0
158, 1.0000000e-02, 1.8623542e-01, 0.0
159, 1.0500000e-02, 1.8623542e-01, 0.0
160, 1.1000000e-02, 1.8623542e-01, 0.0
161, 1.1500000e-02, 1.8623542e-01, 0.0
162, 1.2000000e-02, 1.8623542e-01, 0.0
163, 1.2500000e-02, 1.8623542e-01, 0.0
164, 1.3000000e-02, 1.8623542e-01, 0.0
165, 1.3353586e-02, 1.8623542e-01, 0.0
166, 1.3500000e-02, 1.8623542e-01, 0.0
167, 1.4000000e-02, 1.8573542e-01, 0.0
168, 1.4000000e-02, 1.8623542e-01, 0.0
169, 8.0000000e-03, 1.8673542e-01, 0.0
170, 7.5000000e-03, 1.8673542e-01, 0.0
171, 8.5000000e-03, 1.8673542e-01, 0.0
172, 9.0000000e-03, 1.8673542e-01, 0.0
173, 9.5000000e-03, 1.8673542e-01, 0.0
174, 1.0000000e-02, 1.8673542e-01, 0.0
175, 1.0500000e-02, 1.8673542e-01, 0.0
176, 1.1000000e-02, 1.8673542e-01, 0.0
177, 1.1500000e-02, 1.8673542e-01, 0.0
178, 1.2000000e-02, 1.8673542e-01, 0.0
179, 1.2500000e-02, 1.8673542e-01, 0.0
180, 1.3000000e-02, 1.8673542e-01, 0.0
181, 1.3353586e-02, 1.8673542e-01, 0.0
182, 1.3500000e-02, 1.8673542e-01, 0.0
183, 1.4000000e-02, 1.8673542e-01, 0.0
184, 8.0000000e-03, 1.8723542e-01, 0.0
185, 7.5000000e-03, 1.8723542e-01, 0.0
186, 8.5000000e-03, 1.8723542e-01, 0.0
187, 9.0000000e-03, 1.8723542e-01, 0.0
188, 9.5000000e-03, 1.8723542e-01, 0.0
189, 1.0000000e-02, 1.8723542e-01, 0.0
190, 1.0500000e-02, 1.8723542e-01, 0.0
191, 1.1000000e-02, 1.8723542e-01, 0.0
192, 1.1500000e-02, 1.8723542e-01, 0.0
193, 1.2000000e-02, 1.8723542e-01, 0.0
194, 1.2500000e-02, 1.8723542e-01, 0.0
195, 1.3000000e-02, 1.8723542e-01, 0.0
196, 1.3353586e-02, 1.8723542e-01, 0.0
197, 1.3500000e-02, 1.8723542e-01, 0.0
198, 1.4000000e-02, 1.8723542e-01, 0.0
199, 8.0000000e-03, 1.8773542e-01, 0.0
200, 7.5000000e-03, 1.8773542e-01, 0.0
201, 8.5000000e-03, 1.8773542e-01, 0.0
202, 9.0000000e-03, 1.8773542e-01, 0.0
203, 9.5000000e-03, 1.8773542e-01, 0.0
204, 1.0000000e-02, 1.8773542e-01, 0.0
205, 1.0500000e-02, 1.8773542e-01, 0.0
206, 1.1000000e-02, 1.8773542e-01, 0.0
207, 1.1500000e-02, 1.8773542e-01, 0.0
208, 1.2000000e-02, 1.8773542e-01, 0.0
209, 1.2500000e-02, 1.8773542e-01, 0.0
210, 1.3000000e-02, 1.8773542e-01, 0.0
211, 1.3353586e-02, 1.8773542e-01, 0.0
212, 1.3500000e-02, 1.8773542e-01, 0.0
213, 1.4000000e-02, 1.8773542e-01, 0.0
214, 8.0000000e-03, 1.8823542e-01, 0.0
215, 7.5000000e-03, 1.8823542e-01, 0.0
216, 8.5000000e-03, 1.8823542e-01, 0.0
217, 9.0000000e-03, 1.8823542e-01, 0.0
218, 9.5000000e-03, 1.8823542e-01, 0.0
219, 1.0000000e-02, 1.8823542e-01, 0.0
220, 1.0500000e-02, 1.8823542e-01, 0.0
221, 1.1000000e-02, 1.8823542e-01, 0.0
222, 1.1500000e-02, 1.8823542e-01, 0.0
223, 1.2000000e-02, 1.8823542e-01, 0.0
224, 1.2500000e-02, 1.8823542e-01, 0.0
225, 1.3000000e-02, 1.8823542e-01, 0.0
226, 1.3353586e-02, 1.8823542e-01, 0.0
227, 1.3500000e-02, 1.8823542e-01, 0.0
228, 1.4000000e-02, 1.8823542e-01, 0.0
229, 8.0000000e-03, 1.8873542e-01, 0.0
230, 7.5000000e-03, 1.8873542e-01, 0.0
231, 8.5000000e-03, 1.8873542e-01, 0.0
232, 9.0000000e-03, 1.8873542e-01, 0.0
233, 9.5000000e-03, 1.8873542e-01, 0.0
234, 1.0000000e-02, 1.8873542e-01, 0.0
235, 1.0500000e-02, 1.8873542e-01, 0.0
236, 1.1000000e-02, 1.8873542e-01, 0.0
237, 1.1500000e-02, 1.8873542e-01, 0.0
238, 1.2000000e-02, 1.8873542e-01, 0.0
239, 1.2500000e-02, 1.8873542e-01, 0.0
240, 1.3000000e-02, 1.8873542e-01, 0.0
241, 1.3353586e-02, 1.8873542e-01, 0.0
242, 1.3500000e-02, 1.8873542e-01, 0.0
243, 1.4000000e-02, 1.8873542e-01, 0.0
244, 8.0000000e-03, 1.8923542e-01, 0.0
245, 7.5000000e-03, 1.8923542e-01, 0.0
246, 8.5000000e-03, 1.8923542e-01, 0.0
247, 9.0000000e-03, 1.8923542e-01, 0.0
248, 9.5000000e-03, 1.8923542e-01, 0.0
249, 1.0000000e-02, 1.8923542e-01, 0.0
250, 1.0500000e-02, 1.8923542e-01, 0.0
251, 1.1000000e-02, 1.8923542e-01, 0.0
252, 1.1500000e-02, 1.8923542e-01, 0.0
253, 1.2000000e-02, 1.8923542e-01, 0.0
254, 1.2500000e-02, 1.8923542e-01, 0.0
255, 1.3000000e-02, 1.8923542e-01, 0.0
256, 1.3353586e-02, 1.8923542e-01, 0.0
257, 1.3500000e-02, 1.8923542e-01, 0.0
258, 1.4000000e-02, 1.8923542e-01, 0.0
259, 8.0000000e-03, 1.8973542e-01, 0.0
260, 7.5000000e-03, 1.8973542e-01, 0.0
261, 8.5000000e-03, 1.8973542e-01, 0.0
262, 9.0000000e-03, 1.8973542e-01, 0.0
263, 9.5000000e-03, 1.8973542e-01, 0.0
264, 1.0000000e-02, 1.8973542e-01, 0.0
265, 1.0500000e-02, 1.8973542e-01, 0.0
266, 1.1000000e-02, 1.8973542e-01, 0.0
267, 1.1500000e-02, 1.8973542e-01, 0.0
268, 1.2000000e-02, 1.8973542e-01, 0.0
269, 1.2500000e-02, 1.8973542e-01, 0.0
270, 1.3000000e-02, 1.8973542e-01, 0.0
271, 1.3353586e-02, 1.8973542e-01, 0.0
272, 1.3500000e-02, 1.8973542e-01, 0.0
273, 1.4000000e-02, 1.8973542e-01, 0.0
274, 8.0000000e-03, 1.9023542e-01, 0.0
275, 7.5000000e-03, 1.9023542e-01, 0.0
276, 8.5000000e-03, 1.9023542e-01, 0.0
277, 9.0000000e-03, 1.9023542e-01, 0.0
278, 9.5000000e-03, 1.9023542e-01, 0.0
279, 1.0000000e-02, 1.9023542e-01, 0.0
280, 1.0500000e-02, 1.9023542e-01, 0.0
281, 1.1000000e-02, 1.9023542e-01, 0.0
282, 1.1500000e-02, 1.9023542e-01, 0.0
283, 1.2000000e-02, 1.9023542e-01, 0.0
284, 1.2500000e-02, 1.9023542e-01, 0.0
285, 1.3000000e-02, 1.9023542e-01, 0.0
286, 1.3353586e-02, 1.9023542e-01, 0.0
287, 1.3500000e-02, 1.9023542e-01, 0.0
288, 1.4000000e-02, 1.9023542e-01, 0.0
289, 8.0000000e-03, 1.9067093e-01, 0.0
290, 7.5000000e-03, 1.9067093e-01, 0.0
291, 8.5000000e-03, 1.9067093e-01, 0.0
292, 9.0000000e-03, 1.9067093e-01, 0.0
293, 9.5000000e-03, 1.9067093e-01, 0.0
294, 1.0000000e-02, 1.9067093e-01, 0.0
295, 1.0500000e-02, 1.9067093e-01, 0.0
296, 1.1000000e-02, 1.9067093e-01, 0.0
297, 1.1500000e-02, 1.9067093e-01, 0.0
298, 1.2000000e-02, 1.9067093e-01, 0.0
299, 1.2500000e-02, 1.9067093e-01, 0.0
300, 1.3000000e-02, 1.9067093e-01, 0.0
301, 1.3353586e-02, 1.9067093e-01, 0.0
302, 1.3500000e-02, 1.9067093e-01, 0.0
303, 1.4000000e-02, 1.9067093e-01, 0.0
304, 8.0000000e-03, 1.9073542e-01, 0.0
305, 7.5000000e-03, 1.9073542e-01, 0.0
306, 8.5000000e-03, 1.9073542e-01, 0.0
307, 9.0000000e-03, 1.9073542e-01, 0.0
308, 9.5000000e-03, 1.9073542e-01, 0.0
309, 1.0000000e-02, 1.9073542e-01, 0.0
310, 1.0500000e-02, 1.9073542e-01, 0.0
311, 1.1000000e-02, 1.9073542e-01, 0.0
312, 1.1500000e-02, 1.9073542e-01, 0.0
313, 1.2000000e-02, 1.9073542e-01, 0.0
314, 1.2500000e-02, 1.9073542e-01, 0.0
315, 1.3000000e-02, 1.9073542e-01, 0.0
316, 1.3353586e-02, 1.9073542e-01, 0.0
317, 1.3500000e-02, 1.9073542e-01, 0.0
318, 1.4000000e-02, 1.9073542e-01, 0.0
319, 3.2121198e-02, 1.9067093e-01, 0.0
320, 3.2500000e-02, 1.9067093e-01, 0.0
321, 3.2500000e-02, 1.9073542e-01, 0.0
322, 3.2121198e-02, 1.9073542e-01, 0.0
323, 3.3000000e-02, 1.9067093e-01, 0.0
324, 3.3000000e-02, 1.9073542e-01, 0.0
325, 3.3500000e-02, 1.9067093e-01, 0.0
326, 3.3500000e-02, 1.9073542e-01, 0.0
327, 3.4000000e-02, 1.9067093e-01, 0.0
328, 3.4000000e-02, 1.9073542e-01, 0.0
329, 3.4500000e-02, 1.9067093e-01, 0.0
330, 3.4500000e-02, 1.9073542e-01, 0.0
331, 3.4914345e-02, 1.9067093e-01, 0.0
332, 3.4914345e-02, 1.9073542e-01, 0.0
333, 8.0000000e-03, 1.9123542e-01, 0.0
334, 7.5000000e-03, 1.9123542e-01, 0.0
335, 8.5000000e-03, 1.9123542e-01, 0.0
336, 9.0000000e-03, 1.9123542e-01, 0.0
337, 9.5000000e-03, 1.9123542e-01, 0.0
338, 1.0000000e-02, 1.9123542e-01, 0.0
339, 1.0500000e-02, 1.9123542e-01, 0.0
340, 1.1000000e-02, 1.9123542e-01, 0.0
341, 1.1500000e-02, 1.9123542e-01, 0.0
342, 1.2000000e-02, 1.9123542e-01, 0.0
343, 1.2500000e-02, 1.9123542e-01, 0.0
344, 1.3000000e-02, 1.9123542e-01, 0.0
345, 1.3353586e-02, 1.9123542e-01, 0.0
346, 1.3500000e-02, 1.9123542e-01, 0.0
347, 1.4000000e-02, 1.9123542e-01, 0.0
348, 3.1500000e-02, 1.9073542e-01, 0.0
349, 3.2000000e-02, 1.9073542e-01, 0.0
350, 3.2000000e-02, 1.9123542e-01, 0.0
351, 3.1500000e-02, 1.9123542e-01, 0.0
352, 3.2121198e-02, 1.9123542e-01, 0.0
353, 3.2500000e-02, 1.9123542e-01, 0.0
354, 3.3000000e-02, 1.9123542e-01, 0.0
355, 3.3500000e-02, 1.9123542e-01, 0.0
356, 3.4000000e-02, 1.9123542e-01, 0.0
357, 3.4500000e-02, 1.9123542e-01, 0.0
358, 3.4914345e-02, 1.9123542e-01, 0.0
359, 8.0000000e-03, 1.9173542e-01, 0.0
360, 7.5000000e-03, 1.9173542e-01, 0.0
361, 8.5000000e-03, 1.9173542e-01, 0.0
362, 9.0000000e-03, 1.9173542e-01, 0.0
363, 9.5000000e-03, 1.9173542e-01, 0.0
364, 1.0000000e-02, 1.9173542e-01, 0.0
365, 1.0500000e-02, 1.9173542e-01, 0.0
366, 1.1000000e-02, 1.9173542e-01, 0.0
367, 1.1500000e-02, 1.9173542e-01, 0.0
368, 1.2000000e-02, 1.9173542e-01, 0.0
369, 1.2500000e-02, 1.9173542e-01, 0.0
370, 1.3000000e-02, 1.9173542e-01, 0.0
371, 1.3353586e-02, 1.9173542e-01, 0.0
372, 1.3500000e-02, 1.9173542e-01, 0.0
373, 1.4000000e-02, 1.9173542e-01, 0.0
374, 1.4353586e-02, 1.9123542e-01, 0.0
375, 1.4353586e-02, 1.9173542e-01, 0.0
376, 3.1000000e-02, 1.9123542e-01, 0.0
377, 3.1500000e-02, 1.9173542e-01, 0.0
378, 3.1000000e-02, 1.9173542e-01, 0.0
379, 3.2000000e-02, 1.9173542e-01, 0.0
380, 3.2121198e-02, 1.9173542e-01, 0.0
381, 3.2500000e-02, 1.9173542e-01, 0.0
382, 3.3000000e-02, 1.9173542e-01, 0.0
383, 3.3500000e-02, 1.9173542e-01, 0.0
384, 3.4000000e-02, 1.9173542e-01, 0.0
385, 3.4500000e-02, 1.9173542e-01, 0.0
386, 3.4914345e-02, 1.9173542e-01, 0.0
387, 8.0000000e-03, 1.9223542e-01, 0.0
388, 7.5000000e-03, 1.9223542e-01, 0.0
389, 8.5000000e-03, 1.9223542e-01, 0.0
390, 9.0000000e-03, 1.9223542e-01, 0.0
391, 9.5000000e-03, 1.9223542e-01, 0.0
392, 1.0000000e-02, 1.9223542e-01, 0.0
393, 1.0500000e-02, 1.9223542e-01, 0.0
394, 1.1000000e-02, 1.9223542e-01, 0.0
395, 1.1500000e-02, 1.9223542e-01, 0.0
396, 1.2000000e-02, 1.9223542e-01, 0.0
397, 1.2500000e-02, 1.9223542e-01, 0.0
398, 1.3000000e-02, 1.9223542e-01, 0.0
399, 1.3353586e-02, 1.9223542e-01, 0.0
400, 1.3500000e-02, 1.9223542e-01, 0.0
401, 1.4000000e-02, 1.9223542e-01, 0.0
402, 1.4353586e-02, 1.9223542e-01, 0.0
403, 3.0500000e-02, 1.9173542e-01, 0.0
404, 3.1000000e-02, 1.9223542e-01, 0.0
405, 3.0500000e-02, 1.9223542e-01, 0.0
406, 3.1500000e-02, 1.9223542e-01, 0.0
407, 3.2000000e-02, 1.9223542e-01, 0.0
408, 3.2121198e-02, 1.9223542e-01, 0.0
409, 3.2500000e-02, 1.9223542e-01, 0.0
410, 3.3000000e-02, 1.9223542e-01, 0.0
411, 3.3500000e-02, 1.9223542e-01, 0.0
412, 3.4000000e-02, 1.9223542e-01, 0.0
413, 3.4500000e-02, 1.9223542e-01, 0.0
414, 3.4914345e-02, 1.9223542e-01, 0.0
415, 8.0000000e-03, 1.9273542e-01, 0.0
416, 7.5000000e-03, 1.9273542e-01, 0.0
417, 8.5000000e-03, 1.9273542e-01, 0.0
418, 9.0000000e-03, 1.9273542e-01, 0.0
419, 9.5000000e-03, 1.9273542e-01, 0.0
420, 1.0000000e-02, 1.9273542e-01, 0.0
421, 1.0500000e-02, 1.9273542e-01, 0.0
422, 1.1000000e-02, 1.9273542e-01, 0.0
423, 1.1500000e-02, 1.9273542e-01, 0.0
424, 1.2000000e-02, 1.9273542e-01, 0.0
425, 1.2500000e-02, 1.9273542e-01, 0.0
426, 1.3000000e-02, 1.9273542e-01, 0.0
427, 1.3353586e-02, 1.9273542e-01, 0.0
428, 1.3500000e-02, 1.9273542e-01, 0.0
429, 1.4000000e-02, 1.9273542e-01, 0.0
430, 1.4353586e-02, 1.9273542e-01, 0.0
431, 2.9500000e-02, 1.9223542e-01, 0.0
432, 3.0000000e-02, 1.9223542e-01, 0.0
433, 3.0000000e-02, 1.9273542e-01, 0.0
434, 2.9500000e-02, 1.9273542e-01, 0.0
435, 3.0500000e-02, 1.9273542e-01, 0.0
436, 3.1000000e-02, 1.9273542e-01, 0.0
437, 3.1500000e-02, 1.9273542e-01, 0.0
438, 3.2000000e-02, 1.9273542e-01, 0.0
439, 3.2121198e-02, 1.9273542e-01, 0.0
440, 3.2500000e-02, 1.9273542e-01, 0.0
441, 3.3000000e-02, 1.9273542e-01, 0.0
442, 3.3500000e-02, 1.9273542e-01, 0.0
443, 3.4000000e-02, 1.9273542e-01, 0.0
444, 3.4500000e-02, 1.9273542e-01, 0.0
445, 3.4914345e-02, 1.9273542e-01, 0.0
446, 8.0000000e-03, 1.9323542e-01, 0.0
447, 7.5000000e-03, 1.9323542e-01, 0.0
448, 8.5000000e-03, 1.9323542e-01, 0.0
449, 9.0000000e-03, 1.9323542e-01, 0.0
450, 9.5000000e-03, 1.9323542e-01, 0.0
451, 1.0000000e-02, 1.9323542e-01, 0.0
452, 1.0500000e-02, 1.9323542e-01, 0.0
453, 1.1000000e-02, 1.9323542e-01, 0.0
454, 1.1500000e-02, 1.9323542e-01, 0.0
455, 1.2000000e-02, 1.9323542e-01, 0.0
456, 1.2500000e-02, 1.9323542e-01, 0.0
457, 1.3000000e-02, 1.9323542e-01, 0.0
458, 1.3353586e-02, 1.9323542e-01, 0.0
459, 1.3500000e-02, 1.9323542e-01, 0.0
460, 1.4000000e-02, 1.9323542e-01, 0.0
461, 1.4353586e-02, 1.9323542e-01, 0.0
462, 2.9000000e-02, 1.9273542e-01, 0.0
463, 2.9500000e-02, 1.9323542e-01, 0.0
464, 2.9000000e-02, 1.9323542e-01, 0.0
465, 3.0000000e-02, 1.9323542e-01, 0.0
466, 3.0500000e-02, 1.9323542e-01, 0.0
467, 3.1000000e-02, 1.9323542e-01, 0.0
468, 3.1500000e-02, 1.9323542e-01, 0.0
469, 3.2000000e-02, 1.9323542e-01, 0.0
470, 3.2121198e-02, 1.9323542e-01, 0.0
471, 3.2500000e-02, 1.9323542e-01, 0.0
472, 3.3000000e-02, 1.9323542e-01, 0.0
473, 3.3500000e-02, 1.9323542e-01, 0.0
474, 3.4000000e-02, 1.9323542e-01, 0.0
475, 3.4500000e-02, 1.9323542e-01, 0.0
476, 3.4914345e-02, 1.9323542e-01, 0.0
477, 8.0000000e-03, 1.9372801e-01, 0.0
478, 7.5000000e-03, 1.9372801e-01, 0.0
479, 8.5000000e-03, 1.9372801e-01, 0.0
480, 9.0000000e-03, 1.9372801e-01, 0.0
481, 9.5000000e-03, 1.9372801e-01, 0.0
482, 1.0000000e-02, 1.9372801e-01, 0.0
483, 1.0500000e-02, 1.9372801e-01, 0.0
484, 1.1000000e-02, 1.9372801e-01, 0.0
485, 1.1500000e-02, 1.9372801e-01, 0.0
486, 1.2000000e-02, 1.9372801e-01, 0.0
487, 1.2500000e-02, 1.9372801e-01, 0.0
488, 1.3000000e-02, 1.9372801e-01, 0.0
489, 1.3353586e-02, 1.9372801e-01, 0.0
490, 1.3500000e-02, 1.9372801e-01, 0.0
491, 1.4000000e-02, 1.9372801e-01, 0.0
492, 1.4353586e-02, 1.9372801e-01, 0.0
493, 2.8500000e-02, 1.9323542e-01, 0.0
494, 2.9000000e-02, 1.9372801e-01, 0.0
495, 2.8500000e-02, 1.9372801e-01, 0.0
496, 2.9500000e-02, 1.9372801e-01, 0.0
497, 3.0000000e-02, 1.9372801e-01, 0.0
498, 3.0500000e-02, 1.9372801e-01, 0.0
499, 3.1000000e-02, 1.9372801e-01, 0.0
500, 3.1500000e-02, 1.9372801e-01, 0.0
501, 3.2000000e-02, 1.9372801e-01, 0.0
502, 3.2121198e-02, 1.9372801e-01, 0.0
503, 3.2500000e-02, 1.9372801e-01, 0.0
504, 3.3000000e-02, 1.9372801e-01, 0.0
505, 3.3500000e-02, 1.9372801e-01, 0.0
506, 3.4000000e-02, 1.9372801e-01, 0.0
507, 3.4500000e-02, 1.9372801e-01, 0.0
508, 3.4914345e-02, 1.9372801e-01, 0.0
509, 8.0000000e-03, 1.9423542e-01, 0.0
510, 7.5000000e-03, 1.9423542e-01, 0.0
511, 8.5000000e-03, 1.9423542e-01, 0.0
512, 9.0000000e-03, 1.9423542e-01, 0.0
513, 9.5000000e-03, 1.9423542e-01, 0.0
514, 1.0000000e-02, 1.9423542e-01, 0.0
515, 1.0500000e-02, 1.9423542e-01, 0.0
516, 1.1000000e-02, 1.9423542e-01, 0.0
517, 1.1500000e-02, 1.9423542e-01, 0.0
518, 1.2000000e-02, 1.9423542e-01, 0.0
519, 1.2500000e-02, 1.9423542e-01, 0.0
520, 1.3000000e-02, 1.9423542e-01, 0.0
521, 1.3353586e-02, 1.9423542e-01, 0.0
522, 1.3500000e-02, 1.9423542e-01, 0.0
523, 1.4000000e-02, 1.9423542e-01, 0.0
524, 1.4353586e-02, 1.9423542e-01, 0.0
525, 1.4500000e-02, 1.9372801e-01, 0.0
526, 1.4500000e-02, 1.9423542e-01, 0.0
527, 1.5000000e-02, 1.9372801e-01, 0.0
528, 1.5000000e-02, 1.9423542e-01, 0.0
529, 1.5500000e-02, 1.9372801e-01, 0.0
530, 1.5500000e-02, 1.9423542e-01, 0.0
531, 1.6000000e-02, 1.9372801e-01, 0.0
532, 1.6000000e-02, 1.9423542e-01, 0.0
533, 1.6500000e-02, 1.9372801e-01, 0.0
534, 1.6500000e-02, 1.9423542e-01, 0.0
535, 1.7000000e-02, 1.9372801e-01, 0.0
536, 1.7000000e-02, 1.9423542e-01, 0.0
537, 1.7500000e-02, 1.9372801e-01, 0.0
538, 1.7500000e-02, 1.9423542e-01, 0.0
539, 1.8000000e-02, 1.9372801e-01, 0.0
540, 1.8000000e-02, 1.9423542e-01, 0.0
541, 1.8500000e-02, 1.9372801e-01, 0.0
542, 1.8500000e-02, 1.9423542e-01, 0.0
543, 1.9000000e-02, 1.9372801e-01, 0.0
544, 1.9000000e-02, 1.9423542e-01, 0.0
545, 1.9500000e-02, 1.9372801e-01, 0.0
546, 1.9500000e-02, 1.9423542e-01, 0.0
547, 2.0000000e-02, 1.9372801e-01, 0.0
548, 2.0000000e-02, 1.9423542e-01, 0.0
549, 2.0500000e-02, 1.9372801e-01, 0.0
550, 2.0500000e-02, 1.9423542e-01, 0.0
551, 2.1000000e-02, 1.9372801e-01, 0.0
552, 2.1000000e-02, 1.9423542e-01, 0.0
553, 2.1500000e-02, 1.9372801e-01, 0.0
554, 2.1500000e-02, 1.9423542e-01, 0.0
555, 2.2000000e-02, 1.9372801e-01, 0.0
556, 2.2000000e-02, 1.9423542e-01, 0.0
557, 2.2500000e-02, 1.9372801e-01, 0.0
558, 2.2500000e-02, 1.9423542e-01, 0.0
559, 2.3000000e-02, 1.9372801e-01, 0.0
560, 2.3000000e-02, 1.9423542e-01, 0.0
561, 2.3500000e-02, 1.9372801e-01, 0.0
562, 2.3500000e-02, 1.9423542e-01, 0.0
563, 2.4000000e-02, 1.9372801e-01, 0.0
564, 2.4000000e-02, 1.9423542e-01, 0.0
565, 2.4500000e-02, 1.9372801e-01, 0.0
566, 2.4500000e-02, 1.9423542e-01, 0.0
567, 2.5000000e-02, 1.9372801e-01, 0.0
568, 2.5000000e-02, 1.9423542e-01, 0.0
569, 2.5500000e-02, 1.9372801e-01, 0.0
570, 2.5500000e-02, 1.9423542e-01, 0.0
571, 2.6000000e-02, 1.9372801e-01, 0.0
572, 2.6000000e-02, 1.9423542e-01, 0.0
573, 2.6500000e-02, 1.9372801e-01, 0.0
574, 2.6500000e-02, 1.9423542e-01, 0.0
575, 2.7000000e-02, 1.9372801e-01, 0.0
576, 2.7000000e-02, 1.9423542e-01, 0.0
577, 2.7500000e-02, 1.9372801e-01, 0.0
578, 2.7500000e-02, 1.9423542e-01, 0.0
579, 2.7931476e-02, 1.9372801e-01, 0.0
580, 2.7931476e-02, 1.9423542e-01, 0.0
581, 2.8000000e-02, 1.9372801e-01, 0.0
582, 2.8000000e-02, 1.9423542e-01, 0.0
583, 2.8500000e-02, 1.9423542e-01, 0.0
584, 2.9000000e-02, 1.9423542e-01, 0.0
585, 2.9500000e-02, 1.9423542e-01, 0.0
586, 3.0000000e-02, 1.9423542e-01, 0.0
587, 3.0500000e-02, 1.9423542e-01, 0.0
588, 3.1000000e-02, 1.9423542e-01, 0.0
589, 3.1500000e-02, 1.9423542e-01, 0.0
590, 3.2000000e-02, 1.9423542e-01, 0.0
591, 3.2121198e-02, 1.9423542e-01, 0.0
592, 3.2500000e-02, 1.9423542e-01, 0.0
593, 3.3000000e-02, 1.9423542e-01, 0.0
594, 3.3500000e-02, 1.9423542e-01, 0.0
595, 3.4000000e-02, 1.9423542e-01, 0.0
596, 3.4500000e-02, 1.9423542e-01, 0.0
597, 3.4914345e-02, 1.9423542e-01, 0.0
598, 8.0000000e-03, 1.9473542e-01, 0.0
599, 7.5000000e-03, 1.9473542e-01, 0.0
600, 8.5000000e-03, 1.9473542e-01, 0.0
601, 9.0000000e-03, 1.9473542e-01, 0.0
602, 9.5000000e-03, 1.9473542e-01, 0.0
603, 1.0000000e-02, 1.9473542e-01, 0.0
604, 1.0500000e-02, 1.9473542e-01, 0.0
605, 1.1000000e-02, 1.9473542e-01, 0.0
606, 1.1500000e-02, 1.9473542e-01, 0.0
607, 1.2000000e-02, 1.9473542e-01, 0.0
608, 1.2500000e-02, 1.9473542e-01, 0.0
609, 1.3000000e-02, 1.9473542e-01, 0.0
610, 1.3353586e-02, 1.9473542e-01, 0.0
611, 1.3500000e-02, 1.9473542e-01, 0.0
612, 1.4000000e-02, 1.9473542e-01, 0.0
613, 1.4353586e-02, 1.9473542e-01, 0.0
614, 1.4500000e-02, 1.9473542e-01, 0.0
615, 1.5000000e-02, 1.9473542e-01, 0.0
616, 1.5500000e-02, 1.9473542e-01, 0.0
617, 1.6000000e-02, 1.9473542e-01, 0.0
618, 1.6500000e-02, 1.9473542e-01, 0.0
619, 1.7000000e-02, 1.9473542e-01, 0.0
620, 1.7500000e-02, 1.9473542e-01, 0.0
621, 1.8000000e-02, 1.9473542e-01, 0.0
622, 1.8500000e-02, 1.9473542e-01, 0.0
623, 1.9000000e-02, 1.9473542e-01, 0.0
624, 1.9500000e-02, 1.9473542e-01, 0.0
625, 2.0000000e-02, 1.9473542e-01, 0.0
626, 2.0500000e-02, 1.9473542e-01, 0.0
627, 2.1000000e-02, 1.9473542e-01, 0.0
628, 2.1500000e-02, 1.9473542e-01, 0.0
629, 2.2000000e-02, 1.9473542e-01, 0.0
630, 2.2500000e-02, 1.9473542e-01, 0.0
631, 2.3000000e-02, 1.9473542e-01, 0.0
632, 2.3500000e-02, 1.9473542e-01, 0.0
633, 2.4000000e-02, 1.9473542e-01, 0.0
634, 2.4500000e-02, 1.9473542e-01, 0.0
635, 2.5000000e-02, 1.9473542e-01, 0.0
636, 2.5500000e-02, 1.9473542e-01, 0.0
637, 2.6000000e-02, 1.9473542e-01, 0.0
638, 2.6500000e-02, 1.9473542e-01, 0.0
639, 2.7000000e-02, 1.9473542e-01, 0.0
640, 2.7500000e-02, 1.9473542e-01, 0.0
641, 2.7931476e-02, 1.9473542e-01, 0.0
642, 2.8000000e-02, 1.9473542e-01, 0.0
643, 2.8500000e-02, 1.9473542e-01, 0.0
644, 2.9000000e-02, 1.9473542e-01, 0.0
645, 2.9500000e-02, 1.9473542e-01, 0.0
646, 3.0000000e-02, 1.9473542e-01, 0.0
647, 3.0500000e-02, 1.9473542e-01, 0.0
648, 3.1000000e-02, 1.9473542e-01, 0.0
649, 3.1500000e-02, 1.9473542e-01, 0.0
650, 3.2000000e-02, 1.9473542e-01, 0.0
651, 3.2121198e-02, 1.9473542e-01, 0.0
652, 3.2500000e-02, 1.9473542e-01, 0.0
653, 3.3000000e-02, 1.9473542e-01, 0.0
654, 3.3500000e-02, 1.9473542e-01, 0.0
655, 3.4000000e-02, 1.9473542e-01, 0.0
656, 3.4500000e-02, 1.9473542e-01, 0.0
657, 3.4914345e-02, 1.9473542e-01, 0.0
658, 8.0000000e-03, 1.9523542e-01, 0.0
659, 7.5000000e-03, 1.9523542e-01, 0.0
660, 8.5000000e-03, 1.9523542e-01, 0.0
661, 9.0000000e-03, 1.9523542e-01, 0.0
662, 9.5000000e-03, 1.9523542e-01, 0.0
663, 1.0000000e-02, 1.9523542e-01, 0.0
664, 1.0500000e-02, 1.9523542e-01, 0.0
665, 1.1000000e-02, 1.9523542e-01, 0.0
666, 1.1500000e-02, 1.9523542e-01, 0.0
667, 1.2000000e-02, 1.9523542e-01, 0.0
668, 1.2500000e-02, 1.9523542e-01, 0.0
669, 1.3000000e-02, 1.9523542e-01, 0.0
670, 1.3353586e-02, 1.9523542e-01, 0.0
671, 1.3500000e-02, 1.9523542e-01, 0.0
672, 1.4000000e-02, 1.9523542e-01, 0.0
673, 1.4353586e-02, 1.9523542e-01, 0.0
674, 1.4500000e-02, 1.9523542e-01, 0.0
675, 1.5000000e-02, 1.9523542e-01, 0.0
676, 1.5500000e-02, 1.9523542e-01, 0.0
677, 1.6000000e-02, 1.9523542e-01, 0.0
678, 1.6500000e-02, 1.9523542e-01, 0.0
679, 1.7000000e-02, 1.9523542e-01, 0.0
680, 1.7500000e-02, 1.9523542e-01, 0.0
681, 1.8000000e-02, 1.9523542e-01, 0.0
682, 1.8500000e-02, 1.9523542e-01, 0.0
683, 1.9000000e-02, 1.9523542e-01, 0.0
684, 1.9500000e-02, 1.9523542e-01, 0.0
685, 2.0000000e-02, 1.9523542e-01, 0.0
686, 2.0500000e-02, 1.9523542e-01, 0.0
687, 2.1000000e-02, 1.9523542e-01, 0.0
688, 2.1500000e-02, 1.9523542e-01, 0.0
689, 2.2000000e-02, 1.9523542e-01, 0.0
690, 2.2500000e-02, 1.9523542e-01, 0.0
691, 2.3000000e-02, 1.9523542e-01, 0.0
692, 2.3500000e-02, 1.9523542e-01, 0.0
693, 2.4000000e-02, 1.9523542e-01, 0.0
694, 2.4500000e-02, 1.9523542e-01, 0.0
695, 2.5000000e-02, 1.9523542e-01, 0.0
696, 2.5500000e-02, 1.9523542e-01, 0.0
697, 2.6000000e-02, 1.9523542e-01, 0.0
698, 2.6500000e-02, 1.9523542e-01, 0.0
699, 2.7000000e-02, 1.9523542e-01, 0.0
700, 2.7500000e-02, 1.9523542e-01, 0.0
701, 2.7931476e-02, 1.9523542e-01, 0.0
702, 2.8000000e-02, 1.9523542e-01, 0.0
703, 2.8500000e-02, 1.9523542e-01, 0.0
704, 2.9000000e-02, 1.9523542e-01, 0.0
705, 2.9500000e-02, 1.9523542e-01, 0.0
706, 3.0000000e-02, 1.9523542e-01, 0.0
707, 3.0500000e-02, 1.9523542e-01, 0.0
708, 3.1000000e-02, 1.9523542e-01, 0.0
709, 3.1500000e-02, 1.9523542e-01, 0.0
710, 3.2000000e-02, 1.9523542e-01, 0.0
711, 3.2121198e-02, 1.9523542e-01, 0.0
712, 3.2500000e-02, 1.9523542e-01, 0.0
713, 3.3000000e-02, 1.9523542e-01, 0.0
714, 3.3500000e-02, 1.9523542e-01, 0.0
715, 3.4000000e-02, 1.9523542e-01, 0.0
716, 3.4500000e-02, 1.9523542e-01, 0.0
717, 3.4914345e-02, 1.9523542e-01, 0.0
718, 8.0000000e-03, 1.9573542e-01, 0.0
719, 7.5000000e-03, 1.9573542e-01, 0.0
720, 8.5000000e-03, 1.9573542e-01, 0.0
721, 9.0000000e-03, 1.9573542e-01, 0.0
722, 9.5000000e-03, 1.9573542e-01, 0.0
723, 1.0000000e-02, 1.9573542e-01, 0.0
724, 1.0500000e-02, 1.9573542e-01, 0.0
725, 1.1000000e-02, 1.9573542e-01, 0.0
726, 1.1500000e-02, 1.9573542e-01, 0.0
727, 1.2000000e-02, 1.9573542e-01, 0.0
728, 1.2500000e-02, 1.9573542e-01, 0.0
729, 1.3000000e-02, 1.9573542e-01, 0.0
730, 1.3353586e-02, 1.9573542e-01, 0.0
731, 1.3500000e-02, 1.9573542e-01, 0.0
732, 1.4000000e-02, 1.9573542e-01, 0.0
733, 1.4353586e-02, 1.9573542e-01, 0.0
734, 1.4500000e-02, 1.9573542e-01, 0.0
735, 1.5000000e-02, 1.9573542e-01, 0.0
736, 1.5500000e-02, 1.9573542e-01, 0.0
737, 1.6000000e-02, 1.9573542e-01, 0.0
738, 1.6500000e-02, 1.9573542e-01, 0.0
739, 1.7000000e-02, 1.9573542e-01, 0.0
740, 1.7500000e-02, 1.9573542e-01, 0.0
741, 1.8000000e-02, 1.9573542e-01, 0.0
742, 1.8500000e-02, 1.9573542e-01, 0.0
743, 1.9000000e-02, 1.9573542e-01, 0.0
744, 1.9500000e-02, 1.9573542e-01, 0.0
745, 2.0000000e-02, 1.9573542e-01, 0.0
746, 2.0500000e-02, 1.9573542e-01, 0.0
747, 2.1000000e-02, 1.9573542e-01, 0.0
748, 2.1500000e-02, 1.9573542e-01, 0.0
749, 2.2000000e-02, 1.9573542e-01, 0.0
750, 2.2500000e-02, 1.9573542e-01, 0.0
751, 2.3000000e-02, 1.9573542e-01, 0.0
752, 2.3500000e-02, 1.9573542e-01, 0.0
753, 2.4000000e-02, 1.9573542e-01, 0.0
754, 2.4500000e-02, 1.9573542e-01, 0.0
755, 2.5000000e-02, 1.9573542e-01, 0.0
756, 2.5500000e-02, 1.9573542e-01, 0.0
757, 2.6000000e-02, 1.9573542e-01, 0.0
758, 2.6500000e-02, 1.9573542e-01, 0.0
759, 2.7000000e-02, 1.9573542e-01, 0.0
760, 2.7500000e-02, 1.9573542e-01, 0.0
761, 2.7931476e-02, 1.9573542e-01, 0.0
762, 2.8000000e-02, 1.9573542e-01, 0.0
763, 2.8500000e-02, 1.9573542e-01, 0.0
764, 2.9000000e-02, 1.9573542e-01, 0.0
765, 2.9500000e-02, 1.9573542e-01, 0.0
766, 3.0000000e-02, 1.9573542e-01, 0.0
767, 3.0500000e-02, 1.9573542e-01, 0.0
768, 3.1000000e-02, 1.9573542e-01, 0.0
769, 3.1500000e-02, 1.9573542e-01, 0.0
770, 3.2000000e-02, 1.9573542e-01, 0.0
771, 3.2121198e-02, 1.9573542e-01, 0.0
772, 3.2500000e-02, 1.9573542e-01, 0.0
773, 3.3000000e-02, 1.9573542e-01, 0.0
774, 3.3500000e-02, 1.9573542e-01, 0.0
775, 3.4000000e-02, 1.9573542e-01, 0.0
776, 3.4500000e-02, 1.9573542e-01, 0.0
777, 3.4914345e-02, 1.9573542e-01, 0.0
778, 8.0000000e-03, 1.9623542e-01, 0.0
779, 7.5000000e-03, 1.9623542e-01, 0.0
780, 8.5000000e-03, 1.9623542e-01, 0.0
781, 9.0000000e-03, 1.9623542e-01, 0.0
782, 9.5000000e-03, 1.9623542e-01, 0.0
783, 1.0000000e-02, 1.9623542e-01, 0.0
784, 1.0500000e-02, 1.9623542e-01, 0.0
785, 1.1000000e-02, 1.9623542e-01, 0.0
786, 1.1500000e-02, 1.9623542e-01, 0.0
787, 1.2000000e-02, 1.9623542e-01, 0.0
788, 1.2500000e-02, 1.9623542e-01, 0.0
789, 1.3000000e-02, 1.9623542e-01, 0.0
790, 1.3353586e-02, 1.9623542e-01, 0.0
791, 1.3500000e-02, 1.9623542e-01, 0.0
792, 1.4000000e-02, 1.9623542e-01, 0.0
793, 1.4353586e-02, 1.9623542e-01, 0.0
794, 1.4500000e-02, 1.9623542e-01, 0.0
795, 1.5000000e-02, 1.9623542e-01, 0.0
796, 1.5500000e-02, 1.9623542e-01, 0.0
797, 1.6000000e-02, 1.9623542e-01, 0.0
798, 1.6500000e-02, 1.9623542e-01, 0.0
799, 1.7000000e-02, 1.9623542e-01, 0.0
800, 1.7500000e-02, 1.9623542e-01, 0.0
801, 1.8000000e-02, 1.9623542e-01, 0.0
802, 1.8500000e-02, 1.9623542e-01, 0.0
803, 1.9000000e-02, 1.9623542e-01, 0.0
804, 1.9500000e-02, 1.9623542e-01, 0.0
805, 2.0000000e-02, 1.9623542e-01, 0.0
806, 2.0500000e-02, 1.9623542e-01, 0.0
807, 2.1000000e-02, 1.9623542e-01, 0.0
808, 2.1500000e-02, 1.9623542e-01, 0.0
809, 2.2000000e-02, 1.9623542e-01, 0.0
810, 2.2500000e-02, 1.9623542e-01, 0.0
811, 2.3000000e-02, 1.9623542e-01, 0.0
812, 2.3500000e-02, 1.9623542e-01, 0.0
813, 2.4000000e-02, 1.9623542e-01, 0.0
814, 2.4500000e-02, 1.9623542e-01, 0.0
815, 2.5000000e-02, 1.9623542e-01, 0.0
816, 2.5500000e-02, 1.9623542e-01, 0.0
817, 2.6000000e-02, 1.9623542e-01, 0.0
818, 2.6500000e-02, 1.9623542e-01, 0.0
819, 2.7000000e-02, 1.9623542e-01, 0.0
820, 2.7500000e-02, 1.9623542e-01, 0.0
821, 2.7931476e-02, 1.9623542e-01, 0.0
822, 2.8000000e-02, 1.9623542e-01, 0.0
823, 2.8500000e-02, 1.9623542e-01, 0.0
824, 2.9000000e-02, 1.9623542e-01, 0.0
825, 2.9500000e-02, 1.9623542e-01, 0.0
826, 3.0000000e-02, 1.9623542e-01, 0.0
827, 3.0500000e-02, 1.9623542e-01, 0.0
828, 3.1000000e-02, 1.9623542e-01, 0.0
829, 3.1500000e-02, 1.9623542e-01, 0.0
830, 3.2000000e-02, 1.9623542e-01, 0.0
831, 3.2121198e-02, 1.9623542e-01, 0.0
832, 3.2500000e-02, 1.9623542e-01, 0.0
833, 3.3000000e-02, 1.9623542e-01, 0.0
834, 3.3500000e-02, 1.9623542e-01, 0.0
835, 3.4000000e-02, 1.9623542e-01, 0.0
836, 3.4500000e-02, 1.9623542e-01, 0.0
837, 3.4914345e-02, 1.9623542e-01, 0.0
838, 8.0000000e-03, 1.9673542e-01, 0.0
839, 7.5000000e-03, 1.9673542e-01, 0.0
840, 8.5000000e-03, 1.9673542e-01, 0.0
841, 9.0000000e-03, 1.9673542e-01, 0.0
842, 9.5000000e-03, 1.9673542e-01, 0.0
843, 1.0000000e-02, 1.9673542e-01, 0.0
844, 1.0500000e-02, 1.9673542e-01, 0.0
845, 1.1000000e-02, 1.9673542e-01, 0.0
846, 1.1500000e-02, 1.9673542e-01, 0.0
847, 1.2000000e-02, 1.9673542e-01, 0.0
848, 1.2500000e-02, 1.9673542e-01, 0.0
849, 1.3000000e-02, 1.9673542e-01, 0.0
850, 1.3353586e-02, 1.9673542e-01, 0.0
851, 1.3500000e-02, 1.9673542e-01, 0.0
852, 1.4000000e-02, 1.9673542e-01, 0.0
853, 1.4353586e-02, 1.9673542e-01, 0.0
854, 1.4500000e-02, 1.9673542e-01, 0.0
855, 1.5000000e-02, 1.9673542e-01, 0.0
856, 1.5500000e-02, 1.9673542e-01, 0.0
857, 1.6000000e-02, 1.9673542e-01, 0.0
858, 1.6500000e-02, 1.9673542e-01, 0.0
859, 1.7000000e-02, 1.9673542e-01, 0.0
860, 1.7500000e-02, 1.9673542e-01, 0.0
861, 1.8000000e-02, 1.9673542e-01, 0.0
862, 1.8500000e-02, 1.9673542e-01, 0.0
863, 1.9000000e-02, 1.9673542e-01, 0.0
864, 1.9500000e-02, 1.9673542e-01, 0.0
865, 2.0000000e-02, 1.9673542e-01, 0.0
866, 2.0500000e-02, 1.9673542e-01, 0.0
867, 2.1000000e-02, 1.9673542e-01, 0.0
868, 2.1500000e-02, 1.9673542e-01, 0.0
869, 2.2000000e-02, 1.9673542e-01, 0.0
870, 2.2500000e-02, 1.9673542e-01, 0.0
871, 2.3000000e-02, 1.9673542e-01, 0.0
872, 2.3500000e-02, 1.9673542e-01, 0.0
873, 2.4000000e-02, 1.9673542e-01, 0.0
874, 2.4500000e-02, 1.9673542e-01, 0.0
875, 2.5000000e-02, 1.9673542e-01, 0.0
876, 2.5500000e-02, 1.9673542e-01, 0.0
877, 2.6000000e-02, 1.9673542e-01, 0.0
878, 2.6500000e-02, 1.9673542e-01, 0.0
879, 2.7000000e-02, 1.9673542e-01, 0.0
880, 2.7500000e-02, 1.9673542e-01, 0.0
881, 2.7931476e-02, 1.9673542e-01, 0.0
882, 2.8000000e-02, 1.9673542e-01, 0.0
883, 2.8500000e-02, 1.9673542e-01, 0.0
884, 2.9000000e-02, 1.9673542e-01, 0.0
885, 2.9500000e-02, 1.9673542e-01, 0.0
886, 3.0000000e-02, 1.9673542e-01, 0.0
887, 3.0500000e-02, 1.9673542e-01, 0.0
888, 3.1000000e-02, 1.9673542e-01, 0.0
889, 3.1500000e-02, 1.9673542e-01, 0.0
890, 3.2000000e-02, 1.9673542e-01, 0.0
891, 3.2121198e-02, 1.9673542e-01, 0.0
892, 3.2500000e-02, 1.9673542e-01, 0.0
893, 3.3000000e-02, 1.9673542e-01, 0.0
894, 3.3500000e-02, 1.9673542e-01, 0.0
895, 3.4000000e-02, 1.9673542e-01, 0.0
896, 3.4500000e-02, 1.9673542e-01, 0.0
897, 3.4914345e-02, 1.9673542e-01, 0.0
898, 8.0000000e-03, 1.9723542e-01, 0.0
899, 7.5000000e-03, 1.9723542e-01, 0.0
900, 8.5000000e-03, 1.9723542e-01, 0.0
901, 9.0000000e-03, 1.9723542e-01, 0.0
902, 9.5000000e-03, 1.9723542e-01, 0.0
903, 1.0000000e-02, 1.9723542e-01, 0.0
904, 1.0500000e-02, 1.9723542e-01, 0.0
905, 1.1000000e-02, 1.9723542e-01, 0.0
906, 1.1500000e-02, 1.9723542e-01, 0.0
907, 1.2000000e-02, 1.9723542e-01, 0.0
908, 1.2500000e-02, 1.9723542e-01, 0.0
909, 1.3000000e-02, 1.9723542e-01, 0.0
910, 1.3353586e-02, 1.9723542e-01, 0.0
911, 1.3500000e-02, 1.9723542e-01, 0.0
912, 1.4000000e-02, 1.9723542e-01, 0.0
913, 1.4353586e-02, 1.9723542e-01, 0.0
914, 1.4500000e-02, 1.9723542e-01, 0.0
915, 1.5000000e-02, 1.9723542e-01, 0.0
916, 1.5500000e-02, 1.9723542e-01, 0.0
917, 1.6000000e-02, 1.9723542e-01, 0.0
918, 1.6500000e-02, 1.9723542e-01, 0.0
919, 1.7000000e-02, 1.9723542e-01, 0.0
920, 1.7500000e-02, 1.9723542e-01, 0.0
921, 1.8000000e-02, 1.9723542e-01, 0.0
922, 1.8500000e-02, 1.9723542e-01, 0.0
923, 1.9000000e-02, 1.9723542e-01, 0.0
924, 1.9500000e-02, 1.9723542e-01, 0.0
925, 2.0000000e-02, 1.9723542e-01, 0.0
926, 2.0500000e-02, 1.9723542e-01, 0.0
927, 2.1000000e-02, 1.9723542e-01, 0.0
928, 2.1500000e-02, 1.9723542e-01, 0.0
929, 2.2000000e-02, 1.9723542e-01, 0.0
930, 2.2500000e-02, 1.9723542e-01, 0.0
931, 2.3000000e-02, 1.9723542e-01, 0.0
932, 2.3500000e-02, 1.9723542e-01, 0.0
933, 2.4000000e-02, 1.9723542e-01, 0.0
934, 2.4500000e-02, 1.9723542e-01, 0.0
935, 2.5000000e-02, 1.9723542e-01, 0.0
936, 2.5500000e-02, 1.9723542e-01, 0.0
937, 2.6000000e-02, 1.9723542e-01, 0.0
938, 2.6500000e-02, 1.9723542e-01, 0.0
939, 2.7000000e-02, 1.9723542e-01, 0.0
940, 2.7500000e-02, 1.9723542e-01, 0.0
941, 2.7931476e-02, 1.9723542e-01, 0.0
942, 2.8000000e-02, 1.9723542e-01, 0.0
943, 2.8500000e-02, 1.9723542e-01, 0.0
944, 2.9000000e-02, 1.9723542e-01, 0.0
945, 2.9500000e-02, 1.9723542e-01, 0.0
946, 3.0000000e-02, 1.9723542e-01, 0.0
947, 3.0500000e-02, 1.9723542e-01, 0.0
948, 3.1000000e-02, 1.9723542e-01, 0.0
949, 3.1500000e-02, 1.9723542e-01, 0.0
950, 3.2000000e-02, 1.9723542e-01, 0.0
951, 3.2121198e-02, 1.9723542e-01, 0.0
952, 3.2500000e-02, 1.9723542e-01, 0.0
953, 3.3000000e-02, 1.9723542e-01, 0.0
954, 3.3500000e-02, 1.9723542e-01, 0.0
955, 3.4000000e-02, 1.9723542e-01, 0.0
956, 3.4500000e-02, 1.9723542e-01, 0.0
957, 3.4914345e-02, 1.9723542e-01, 0.0
958, 8.0000000e-03, 1.9773542e-01, 0.0
959, 7.5000000e-03, 1.9773542e-01, 0.0
960, 8.5000000e-03, 1.9773542e-01, 0.0
961, 9.0000000e-03, 1.9773542e-01, 0.0
962, 9.5000000e-03, 1.9773542e-01, 0.0
963, 1.0000000e-02, 1.9773542e-01, 0.0
964, 1.0500000e-02, 1.9773542e-01, 0.0
965, 1.1000000e-02, 1.9773542e-01, 0.0
966, 1.1500000e-02, 1.9773542e-01, 0.0
967, 1.2000000e-02, 1.9773542e-01, 0.0
968, 1.2500000e-02, 1.9773542e-01, 0.0
969, 1.3000000e-02, 1.9773542e-01, 0.0
970, 1.3353586e-02, 1.9773542e-01, 0.0
971, 1.3500000e-02, 1.9773542e-01, 0.0
972, 1.4000000e-02, 1.9773542e-01, 0.0
973, 1.4353586e-02, 1.9773542e-01, 0.0
974, 1.4500000e-02, 1.9773542e-01, 0.0
975, 1.5000000e-02, 1.9773542e-01, 0.0
976, 1.5500000e-02, 1.9773542e-01, 0.0
977, 1.6000000e-02, 1.9773542e-01, 0.0
978, 1.6500000e-02, 1.9773542e-01, 0.0
979, 1.7000000e-02, 1.9773542e-01, 0.0
980, 1.7500000e-02, 1.9773542e-01, 0.0
981, 1.8000000e-02, 1.9773542e-01, 0.0
982, 1.8500000e-02, 1.9773542e-01, 0.0
983, 1.9000000e-02, 1.9773542e-01, 0.0
984, 1.9500000e-02, 1.9773542e-01, 0.0
985, 2.0000000e-02, 1.9773542e-01, 0.0
986, 2.0500000e-02, 1.9773542e-01, 0.0
987, 2.1000000e-02, 1.9773542e-01, 0.0
988, 2.1500000e-02, 1.9773542e-01, 0.0
989, 2.2000000e-02, 1.9773542e-01, 0.0
990, 2.2500000e-02, 1.9773542e-01, 0.0
991, 2.3000000e-02, 1.9773542e-01, 0.0
992, 2.3500000e-02, 1.9773542e-01, 0.0
993, 2.4000000e-02, 1.9773542e-01, 0.0
994, 2.4500000e-02, 1.9773542e-01, 0.0
995, 2.5000000e-02, 1.9773542e-01, 0.0
996, 2.5500000e-02, 1.9773542e-01, 0.0
997, 2.6000000e-02, 1.9773542e-01, 0.0
998, 2.6500000e-02, 1.9773542e-01, 0.0
999, 2.7000000e-02, 1.9773542e-01, 0.0
1000, 2.7500000e-02, 1.9773542e-01, 0.0
1001, 2.7931476e-02, 1.9773542e-01, 0.0
1002, 2.8000000e-02, 1.9773542e-01, 0.0
1003, 2.8500000e-02, 1.9773542e-01, 0.0
1004, 2.9000000e-02, 1.9773542e-01, 0.0
1005, 2.9500000e-02, 1.9773542e-01, 0.0
1006, 3.0000000e-02, 1.9773542e-01, 0.0
1007, 3.0500000e-02, 1.9773542e-01, 0.0
1008, 3.1000000e-02, 1.9773542e-01, 0.0
1009, 3.1500000e-02, 1.9773542e-01, 0.0
1010, 3.2000000e-02, 1.9773542e-01, 0.0
1011, 3.2121198e-02, 1.9773542e-01, 0.0
1012, 3.2500000e-02, 1.9773542e-01, 0.0
1013, 3.3000000e-02, 1.9773542e-01, 0.0
1014, 3.3500000e-02, 1.9773542e-01, 0.0
1015, 3.4000000e-02, 1.9773542e-01, 0.0
1016, 3.4500000e-02, 1.9773542e-01, 0.0
1017, 3.4914345e-02, 1.9773542e-01, 0.0
1018, 8.0000000e-03, 1.9823542e-01, 0.0
1019, 7.5000000e-03, 1.9823542e-01, 0.0
1020, 8.5000000e-03, 1.9823542e-01, 0.0
1021, 9.0000000e-03, 1.9823542e-01, 0.0
1022, 9.5000000e-03, 1.9823542e-01, 0.0
1023, 1.0000000e-02, 1.9823542e-01, 0.0
1024, 1.0500000e-02, 1.9823542e-01, 0.0
1025, 1.1000000e-02, 1.9823542e-01, 0.0
1026, 1.1500000e-02, 1.9823542e-01, 0.0
1027, 1.2000000e-02, 1.9823542e-01, 0.0
1028, 1.2500000e-02, 1.9823542e-01, 0.0
1029, 1.3000000e-02, 1.9823542e-01, 0.0
1030, 1.3353586e-02, 1.9823542e-01, 0.0
1031, 1.3500000e-02, 1.9823542e-01, 0.0
1032, 1.4000000e-02, 1.9823542e-01, 0.0
1033, 1.4353586e-02, 1.9823542e-01, 0.0
1034, 1.4500000e-02, 1.9823542e-01, 0.0
1035, 1.5000000e-02, 1.9823542e-01, 0.0
1036, 1.5500000e-02, 1.9823542e-01, 0.0
1037, 1.6000000e-02, 1.9823542e-01, 0.0
1038, 1.6500000e-02, 1.9823542e-01, 0.0
1039, 1.7000000e-02, 1.9823542e-01, 0.0
1040, 1.7500000e-02, 1.9823542e-01, 0.0
1041, 1.8000000e-02, 1.9823542e-01, 0.0
1042, 1.8500000e-02, 1.9823542e-01, 0.0
1043, 1.9000000e-02, 1.9823542e-01, 0.0
1044, 1.9500000e-02, 1.9823542e-01, 0.0
1045, 2.0000000e-02, 1.9823542e-01, 0.0
1046, 2.0500000e-02, 1.9823542e-01, 0.0
1047, 2.1000000e-02, 1.9823542e-01, 0.0
1048, 2.1500000e-02, 1.9823542e-01, 0.0
1049, 2.2000000e-02, 1.9823542e-01, 0.0
1050, 2.2500000e-02, 1.9823542e-01, 0.0
1051, 2.3000000e-02, 1.9823542e-01, 0.0
1052, 2.3500000e-02, 1.9823542e-01, 0.0
1053, 2.4000000e-02, 1.9823542e-01, 0.0
1054, 2.4500000e-02, 1.9823542e-01, 0.0
1055, 2.5000000e-02, 1.9823542e-01, 0.0
1056, 2.5500000e-02, 1.9823542e-01, 0.0
1057, 2.6000000e-02, 1.9823542e-01, 0.0
1058, 2.6500000e-02, 1.9823542e-01, 0.0
1059, 2.7000000e-02, 1.9823542e-01, 0.0
1060, 2.7500000e-02, 1.9823542e-01, 0.0
1061, 2.7931476e-02, 1.9823542e-01, 0.0
1062, 2.8000000e-02, 1.9823542e-01, 0.0
1063, 2.8500000e-02, 1.9823542e-01, 0.0
1064, 2.9000000e-02, 1.9823542e-01, 0.0
1065, 2.9500000e-02, 1.9823542e-01, 0.0
1066, 3.0000000e-02, 1.9823542e-01, 0.0
1067, 3.0500000e-02, 1.9823542e-01, 0.0
1068, 3.1000000e-02, 1.9823542e-01, 0.0
1069, 3.1500000e-02, 1.9823542e-01, 0.0
1070, 3.2000000e-02, 1.9823542e-01, 0.0
1071, 3.2121198e-02, 1.9823542e-01, 0.0
1072, 3.2500000e-02, 1.9823542e-01, 0.0
1073, 3.3000000e-02, 1.9823542e-01, 0.0
1074, 3.3500000e-02, 1.9823542e-01, 0.0
1075, 3.4000000e-02, 1.9823542e-01, 0.0
1076, 3.4500000e-02, 1.9823542e-01, 0.0
1077, 3.4914345e-02, 1.9823542e-01, 0.0
1078, 8.0000000e-03, 1.9873542e-01, 0.0
1079, 7.5000000e-03, 1.9873542e-01, 0.0
1080, 8.5000000e-03, 1.9873542e-01, 0.0
1081, 9.0000000e-03, 1.9873542e-01, 0.0
1082, 9.5000000e-03, 1.9873542e-01, 0.0
1083, 1.0000000e-02, 1.9873542e-01, 0.0
1084, 1.0500000e-02, 1.9873542e-01, 0.0
1085, 1.1000000e-02, 1.9873542e-01, 0.0
1086, 1.1500000e-02, 1.9873542e-01, 0.0
1087, 1.2000000e-02, 1.9873542e-01, 0.0
1088, 1.2500000e-02, 1.9873542e-01, 0.0
1089, 1.3000000e-02, 1.9873542e-01, 0.0
1090, 1.3353586e-02, 1.9873542e-01, 0.0
1091, 1.3500000e-02, 1.9873542e-01, 0.0
1092, 1.4000000e-02, 1.9873542e-01, 0.0
1093, 1.4353586e-02, 1.9873542e-01, 0.0
1094, 1.4500000e-02, 1.9873542e-01, 0.0
1095, 1.5000000e-02, 1.9873542e-01, 0.0
1096, 1.5500000e-02, 1.9873542e-01, 0.0
1097, 1.6000000e-02, 1.9873542e-01, 0.0
1098, 1.6500000e-02, 1.9873542e-01, 0.0
1099, 1.7000000e-02, 1.9873542e-01, 0.0
1100, 1.7500000e-02, 1.9873542e-01, 0.0
1101, 1.8000000e-02, 1.9873542e-01, 0.0
1102, 1.8500000e-02, 1.9873542e-01, 0.0
1103, 1.9000000e-02, 1.9873542e-01, 0.0
1104, 1.9500000e-02, 1.9873542e-01, 0.0
1105, 2.0000000e-02, 1.9873542e-01, 0.0
1106, 2.0500000e-02, 1.9873542e-01, 0.0
1107, 2.1000000e-02, 1.9873542e-01, 0.0
1108, 2.1500000e-02, 1.9873542e-01, 0.0
1109, 2.2000000e-02, 1.9873542e-01, 0.0
1110, 2.2500000e-02, 1.9873542e-01, 0.0
1111, 2.3000000e-02, 1.9873542e-01, 0.0
1112, 2.3500000e-02, 1.9873542e-01, 0.0
1113, 2.4000000e-02, 1.9873542e-01, 0.0
1114, 2.4500000e-02, 1.9873542e-01, 0.0
1115, 2.5000000e-02, 1.9873542e-01, 0.0
1116, 2.5500000e-02, 1.9873542e-01, 0.0
1117, 2.6000000e-02, 1.9873542e-01, 0.0
1118, 2.6500000e-02, 1.9873542e-01, 0.0
1119, 2.7000000e-02, 1.9873542e-01, 0.0
1120, 2.7500000e-02, 1.9873542e-01, 0.0
1121, 2.7931476e-02, 1.9873542e-01, 0.0
1122, 2.8000000e-02, 1.9873542e-01, 0.0
1123, 2.8500000e-02, 1.9873542e-01, 0.0
1124, 2.9000000e-02, 1.9873542e-01, 0.0
1125, 2.9500000e-02, 1.9873542e-01, 0.0
1126, 3.0000000e-02, 1.9873542e-01, 0.0
1127, 3.0500000e-02, 1.9873542e-01, 0.0
1128, 3.1000000e-02, 1.9873542e-01, 0.0
1129, 3.1500000e-02, 1.9873542e-01, 0.0
1130, 3.2000000e-02, 1.9873542e-01, 0.0
1131, 3.2121198e-02, 1.9873542e-01, 0.0
1132, 3.2500000e-02, 1.9873542e-01, 0.0
1133, 3.3000000e-02, 1.9873542e-01, 0.0
1134, 3.3500000e-02, 1.9873542e-01, 0.0
1135, 3.4000000e-02, 1.9873542e-01, 0.0
1136, 3.4500000e-02, 1.9873542e-01, 0.0
1137, 3.4914345e-02, 1.9873542e-01, 0.0
1138, 8.0000000e-03, 1.9923542e-01, 0.0
1139, 7.5000000e-03, 1.9923542e-01, 0.0
1140, 8.5000000e-03, 1.9923542e-01, 0.0
1141, 9.0000000e-03, 1.9923542e-01, 0.0
1142, 9.5000000e-03, 1.9923542e-01, 0.0
1143, 1.0000000e-02, 1.9923542e-01, 0.0
1144, 1.0500000e-02, 1.9923542e-01, 0.0
1145, 1.1000000e-02, 1.9923542e-01, 0.0
1146, 1.1500000e-02, 1.9923542e-01, 0.0
1147, 1.2000000e-02, 1.9923542e-01, 0.0
1148, 1.2500000e-02, 1.9923542e-01, 0.0
1149, 1.3000000e-02, 1.9923542e-01, 0.0
1150, 1.3353586e-02, 1.9923542e-01, 0.0
1151, 1.3500000e-02, 1.9923542e-01, 0.0
1152, 1.4000000e-02, 1.9923542e-01, 0.0
1153, 1.4353586e-02, 1.9923542e-01, 0.0
1154, 1.4500000e-02, 1.9923542e-01, 0.0
1155, 1.5000000e-02, 1.9923542e-01, 0.0
1156, 1.5500000e-02, 1.9923542e-01, 0.0
1157, 1.6000000e-02, 1.9923542e-01, 0.0
1158, 1.6500000e-02, 1.9923542e-01, 0.0
1159, 1.7000000e-02, 1.9923542e-01, 0.0
1160, 1.7500000e-02, 1.9923542e-01, 0.0
1161, 1.8000000e-02, 1.9923542e-01, 0.0
1162, 1.8500000e-02, 1.9923542e-01, 0.0
1163, 1.9000000e-02, 1.9923542e-01, 0.0
1164, 1.9500000e-02, 1.9923542e-01, 0.0
1165, 2.0000000e-02, 1.9923542e-01, 0.0
1166, 2.0500000e-02, 1.9923542e-01, 0.0
1167, 2.1000000e-02, 1.9923542e-01, 0.0
1168, 2.1500000e-02, 1.9923542e-01, 0.0
1169, 2.2000000e-02, 1.9923542e-01, 0.0
1170, 2.2500000e-02, 1.9923542e-01, 0.0
1171, 2.3000000e-02, 1.9923542e-01, 0.0
1172, 2.3500000e-02, 1.9923542e-01, 0.0
1173, 2.4000000e-02, 1.9923542e-01, 0.0
1174, 2.4500000e-02, 1.9923542e-01, 0.0
1175, 2.5000000e-02, 1.9923542e-01, 0.0
1176, 2.5500000e-02, 1.9923542e-01, 0.0
1177, 2.6000000e-02, 1.9923542e-01, 0.0
1178, 2.6500000e-02, 1.9923542e-01, 0.0
1179, 2.7000000e-02, 1.9923542e-01, 0.0
1180, 2.7500000e-02, 1.9923542e-01, 0.0
1181, 2.7931476e-02, 1.9923542e-01, 0.0
1182, 2.8000000e-02, 1.9923542e-01, 0.0
1183, 2.8500000e-02, 1.9923542e-01, 0.0
1184, 2.9000000e-02, 1.9923542e-01, 0.0
1185, 2.9500000e-02, 1.9923542e-01, 0.0
1186, 3.0000000e-02, 1.9923542e-01, 0.0
1187, 3.0500000e-02, 1.9923542e-01, 0.0
1188, 3.1000000e-02, 1.9923542e-01, 0.0
1189, 3.1500000e-02, 1.9923542e-01, 0.0
1190, 3.2000000e-02, 1.9923542e-01, 0.0
1191, 3.2121198e-02, 1.9923542e-01, 0.0
1192, 3.2500000e-02, 1.9923542e-01, 0.0
1193, 3.3000000e-02, 1.9923542e-01, 0.0
1194, 3.3500000e-02, 1.9923542e-01, 0.0
1195, 3.4000000e-02, 1.9923542e-01, 0.0
1196, 3.4500000e-02, 1.9923542e-01, 0.0
1197, 3.4914345e-02, 1.9923542e-01, 0.0
1198, 8.0000000e-03, 1.9973542e-01, 0.0
1199, 7.5000000e-03, 1.9973542e-01, 0.0
1200, 8.5000000e-03, 1.9973542e-01, 0.0
1201, 9.0000000e-03, 1.9973542e-01, 0.0
1202, 9.5000000e-03, 1.9973542e-01, 0.0
1203, 1.0000000e-02, 1.9973542e-01, 0.0
1204, 1.0500000e-02, 1.9973542e-01, 0.0
1205, 1.1000000e-02, 1.9973542e-01, 0.0
1206, 1.1500000e-02, 1.9973542e-01, 0.0
1207, 1.2000000e-02, 1.9973542e-01, 0.0
1208, 1.2500000e-02, 1.9973542e-01, 0.0
1209, 1.3000000e-02, 1.9973542e-01, 0.0
1210, 1.3353586e-02, 1.9973542e-01, 0.0
1211, 1.3500000e-02, 1.9973542e-01, 0.0
1212, 1.4000000e-02, 1.9973542e-01, 0.0
1213, 1.4353586e-02, 1.9973542e-01, 0.0
1214, 1.4500000e-02, 1.9973542e-01, 0.0
1215, 1.5000000e-02, 1.9973542e-01, 0.0
1216, 1.5500000e-02, 1.9973542e-01, 0.0
1217, 1.6000000e-02, 1.9973542e-01, 0.0
1218, 1.6500000e-02, 1.9973542e-01, 0.0
1219, 1.7000000e-02, 1.9973542e-01, 0.0
1220, 1.7500000e-02, 1.9973542e-01, 0.0
1221, 1.8000000e-02, 1.9973542e-01, 0.0
1222, 1.8500000e-02, 1.9973542e-01, 0.0
1223, 1.9000000e-02, 1.9973542e-01, 0.0
1224, 1.9500000e-02, 1.9973542e-01, 0.0
1225, 2.0000000e-02, 1.9973542e-01, 0.0
1226, 2.0500000e-02, 1.9973542e-01, 0.0
1227, 2.1000000e-02, 1.9973542e-01, 0.0
1228, 2.1500000e-02, 1.9973542e-01, 0.0
1229, 2.2000000e-02, 1.9973542e-01, 0.0
1230, 2.2500000e-02, 1.9973542e-01, 0.0
1231, 2.3000000e-02, 1.9973542e-01, 0.0
1232, 2.3500000e-02, 1.9973542e-01, 0.0
1233, 2.4000000e-02, 1.9973542e-01, 0.0
1234, 2.4500000e-02, 1.9973542e-01, 0.0
1235, 2.5000000e-02, 1.9973542e-01, 0.0
1236, 2.5500000e-02, 1.9973542e-01, 0.0
1237, 2.6000000e-02, 1.9973542e-01, 0.0
1238, 2.6500000e-02, 1.9973542e-01, 0.0
1239, 2.7000000e-02, 1.9973542e-01, 0.0
1240, 2.7500000e-02, 1.9973542e-01, 0.0
1241, 2.7931476e-02, 1.9973542e-01, 0.0
1242, 2.8000000e-02, 1.9973542e-01, 0.0
1243, 2.8500000e-02, 1.9973542e-01, 0.0
1244, 2.9000000e-02, 1.9973542e-01, 0.0
1245, 2.9500000e-02, 1.9973542e-01, 0.0
1246, 3.0000000e-02, 1.9973542e-01, 0.0
1247, 3.0500000e-02, 1.9973542e-01, 0.0
1248, 3.1000000e-02, 1.9973542e-01, 0.0
1249, 3.1500000e-02, 1.9973542e-01, 0.0
1250, 3.2000000e-02, 1.9973542e-01, 0.0
1251, 3.2121198e-02, 1.9973542e-01, 0.0
1252, 3.2500000e-02, 1.9973542e-01, 0.0
1253, 3.3000000e-02, 1.9973542e-01, 0.0
1254, 3.3500000e-02, 1.9973542e-01, 0.0
1255, 3.4000000e-02, 1.9973542e-01, 0.0
1256, 3.4500000e-02, 1.9973542e-01, 0.0
1257, 3.4914345e-02, 1.9973542e-01, 0.0
1258, 8.0000000e-03, 2.0023542e-01, 0.0
1259, 7.5000000e-03, 2.0023542e-01, 0.0
1260, 8.5000000e-03, 2.0023542e-01, 0.0
1261, 9.0000000e-03, 2.0023542e-01, 0.0
1262, 9.5000000e-03, 2.0023542e-01, 0.0
1263, 1.0000000e-02, 2.0023542e-01, 0.0
1264, 1.0500000e-02, 2.0023542e-01, 0.0
1265, 1.1000000e-02, 2.0023542e-01, 0.0
1266, 1.1500000e-02, 2.0023542e-01, 0.0
1267, 1.2000000e-02, 2.0023542e-01, 0.0
1268, 1.2500000e-02, 2.0023542e-01, 0.0
1269, 1.3000000e-02, 2.0023542e-01, 0.0
1270, 1.3353586e-02, 2.0023542e-01, 0.0
1271, 1.3500000e-02, 2.0023542e-01, 0.0
1272, 1.4000000e-02, 2.0023542e-01, 0.0
1273, 1.4353586e-02, 2.0023542e-01, 0.0
1274, 1.4500000e-02, 2.0023542e-01, 0.0
1275, 1.5000000e-02, 2.0023542e-01, 0.0
1276, 1.5500000e-02, 2.0023542e-01, 0.0
1277, 1.6000000e-02, 2.0023542e-01, 0.0
1278, 1.6500000e-02, 2.0023542e-01, 0.0
1279, 1.7000000e-02, 2.0023542e-01, 0.0
1280, 1.7500000e-02, 2.0023542e-01, 0.0
1281, 1.8000000e-02, 2.0023542e-01, 0.0
1282, 1.8500000e-02, 2.0023542e-01, 0.0
1283, 1.9000000e-02, 2.0023542e-01, 0.0
1284, 1.9500000e-02, 2.0023542e-01, 0.0
1285, 2.0000000e-02, 2.0023542e-01, 0.0
1286, 2.0500000e-02, 2.0023542e-01, 0.0
1287, 2.1000000e-02, 2.0023542e-01, 0.0
1288, 2.1500000e-02, 2.0023542e-01, 0.0
1289, 2.2000000e-02, 2.0023542e-01, 0.0
1290, 2.2500000e-02, 2.0023542e-01, 0.0
1291, 2.3000000e-02, 2.0023542e-01, 0.0
1292, 2.3500000e-02, 2.0023542e-01, 0.0
1293, 2.4000000e-02, 2.0023542e-01, 0.0
1294, 2.4500000e-02, 2.0023542e-01, 0.0
1295, 2.5000000e-02, 2.0023542e-01, 0.0
1296, 2.5500000e-02, 2.0023542e-01, 0.0
1297, 2.6000000e-02, 2.0023542e-01, 0.0
1298, 2.6500000e-02, 2.0023542e-01, 0.0
1299, 2.7000000e-02, 2.0023542e-01, 0.0
1300, 2.7500000e-02, 2.0023542e-01, 0.0
1301, 2.7931476e-02, 2.0023542e-01, 0.0
1302, 2.8000000e-02, 2.0023542e-01, 0.0
1303, 2.8500000e-02, 2.0023542e-01, 0.0
1304, 2.9000000e-02, 2.0023542e-01, 0.0
1305, 2.9500000e-02, 2.0023542e-01, 0.0
1306, 3.0000000e-02, 2.0023542e-01, 0.0
1307, 3.0500000e-02, 2.0023542e-01, 0.0
1308, 3.1000000e-02, 2.0023542e-01, 0.0
1309, 3.1500000e-02, 2.0023542e-01, 0.0
1310, 3.2000000e-02, 2.0023542e-01, 0.0
1311, 3.2121198e-02, 2.0023542e-01, 0.0
1312, 3.2500000e-02, 2.0023542e-01, 0.0
1313, 3.3000000e-02, 2.0023542e-01, 0.0
1314, 3.3500000e-02, 2.0023542e-01, 0.0
1315, 3.4000000e-02, 2.0023542e-01, 0.0
1316, 3.4500000e-02, 2.0023542e-01, 0.0
1317, 3.4914345e-02, 2.0023542e-01, 0.0
1318, 8.0000000e-03, 2.0073542e-01, 0.0
1319, 7.5000000e-03, 2.0073542e-01, 0.0
1320, 8.5000000e-03, 2.0073542e-01, 0.0
1321, 9.0000000e-03, 2.0073542e-01, 0.0
1322, 9.5000000e-03, 2.0073542e-01, 0.0
1323, 1.0000000e-02, 2.0073542e-01, 0.0
1324, 1.0500000e-02, 2.0073542e-01, 0.0
1325, 1.1000000e-02, 2.0073542e-01, 0.0
1326, 1.1500000e-02, 2.0073542e-01, 0.0
1327, 1.2000000e-02, 2.0073542e-01, 0.0
1328, 1.2500000e-02, 2.0073542e-01, 0.0
1329, 1.3000000e-02, 2.0073542e-01, 0.0
1330, 1.3353586e-02, 2.0073542e-01, 0.0
1331, 1.3500000e-02, 2.0073542e-01, 0.0
1332, 1.4000000e-02, 2.0073542e-01, 0.0
1333, 1.4353586e-02, 2.0073542e-01, 0.0
1334, 1.4500000e-02, 2.0073542e-01, 0.0
1335, 1.5000000e-02, 2.0073542e-01, 0.0
1336, 1.5500000e-02, 2.0073542e-01, 0.0
1337, 1.6000000e-02, 2.0073542e-01, 0.0
1338, 1.6500000e-02, 2.0073542e-01, 0.0
1339, 1.7000000e-02, 2.0073542e-01, 0.0
1340, 1.7500000e-02, 2.0073542e-01, 0.0
1341, 1.8000000e-02, 2.0073542e-01, 0.0
1342, 1.8500000e-02, 2.0073542e-01, 0.0
1343, 1.9000000e-02, 2.0073542e-01, 0.0
1344, 1.9500000e-02, 2.0073542e-01, 0.0
1345, 2.0000000e-02, 2.0073542e-01, 0.0
1346, 2.0500000e-02, 2.0073542e-01, 0.0
1347, 2.1000000e-02, 2.0073542e-01, 0.0
1348, 2.1500000e-02, 2.0073542e-01, 0.0
1349, 2.2000000e-02, 2.0073542e-01, 0.0
1350, 2.2500000e-02, 2.0073542e-01, 0.0
1351, 2.3000000e-02, 2.0073542e-01, 0.0
1352, 2.3500000e-02, 2.0073542e-01, 0.0
1353, 2.4000000e-02, 2.0073542e-01, 0.0
1354, 2.4500000e-02, 2.0073542e-01, 0.0
1355, 2.5000000e-02, 2.0073542e-01, 0.0
1356, 2.5500000e-02, 2.0073542e-01, 0.0
1357, 2.6000000e-02, 2.0073542e-01, 0.0
1358, 2.6500000e-02, 2.0073542e-01, 0.0
1359, 2.7000000e-02, 2.0073542e-01, 0.0
1360, 2.7500000e-02, 2.0073542e-01, 0.0
1361, 2.7931476e-02, 2.0073542e-01, 0.0
1362, 2.8000000e-02, 2.0073542e-01, 0.0
1363, 2.8500000e-02, 2.0073542e-01, 0.0
1364, 2.9000000e-02, 2.0073542e-01, 0.0
1365, 2.9500000e-02, 2.0073542e-01, 0.0
1366, 3.0000000e-02, 2.0073542e-01, 0.0
1367, 3.0500000e-02, 2.0073542e-01, 0.0
1368, 3.1000000e-02, 2.0073542e-01, 0.0
1369, 3.1500000e-02, 2.0073542e-01, 0.0
1370, 3.2000000e-02, 2.0073542e-01, 0.0
1371, 3.2121198e-02, 2.0073542e-01, 0.0
1372, 3.2500000e-02, 2.0073542e-01, 0.0
1373, 3.3000000e-02, 2.0073542e-01, 0.0
1374, 3.3500000e-02, 2.0073542e-01, 0.0
1375, 3.4000000e-02, 2.0073542e-01, 0.0
1376, 3.4500000e-02, 2.0073542e-01, 0.0
1377, 3.4914345e-02, 2.0073542e-01, 0.0
1378, 8.0000000e-03, 2.0123542e-01, 0.0
1379, 7.5000000e-03, 2.0123542e-01, 0.0
1380, 8.5000000e-03, 2.0123542e-01, 0.0
1381, 9.0000000e-03, 2.0123542e-01, 0.0
1382, 9.5000000e-03, 2.0123542e-01, 0.0
1383, 1.0000000e-02, 2.0123542e-01, 0.0
1384, 1.0500000e-02, 2.0123542e-01, 0.0
1385, 1.1000000e-02, 2.0123542e-01, 0.0
1386, 1.1500000e-02, 2.0123542e-01, 0.0
1387, 1.2000000e-02, 2.0123542e-01, 0.0
1388, 1.2500000e-02, 2.0123542e-01, 0.0
1389, 1.3000000e-02, 2.0123542e-01, 0.0
1390, 1.3353586e-02, 2.0123542e-01, 0.0
1391, 1.3500000e-02, 2.0123542e-01, 0.0
1392, 1.4000000e-02, 2.0123542e-01, 0.0
1393, 1.4353586e-02, 2.0123542e-01, 0.0
1394, 1.4500000e-02, 2.0123542e-01, 0.0
1395, 1.5000000e-02, 2.0123542e-01, 0.0
1396, 1.5500000e-02, 2.0123542e-01, 0.0
1397, 1.6000000e-02, 2.0123542e-01, 0.0
1398, 1.6500000e-02, 2.0123542e-01, 0.0
1399, 1.7000000e-02, 2.0123542e-01, 0.0
1400, 1.7500000e-02, 2.0123542e-01, 0.0
1401, 1.8000000e-02, 2.0123542e-01, 0.0
1402, 1.8500000e-02, 2.0123542e-01, 0.0
1403, 1.9000000e-02, 2.0123542e-01, 0.0
1404, 1.9500000e-02, 2.0123542e-01, 0.0
1405, 2.0000000e-02, 2.0123542e-01, 0.0
1406, 2.0500000e-02, 2.0123542e-01, 0.0
1407, 2.1000000e-02, 2.0123542e-01, 0.0
1408, 2.1500000e-02, 2.0123542e-01, 0.0
1409, 2.2000000e-02, 2.0123542e-01, 0.0
1410, 2.2500000e-02, 2.0123542e-01, 0.0
1411, 2.3000000e-02, 2.0123542e-01, 0.0
1412, 2.3500000e-02, 2.0123542e-01, 0.0
1413, 2.4000000e-02, 2.0123542e-01, 0.0
1414, 2.4500000e-02, 2.0123542e-01, 0.0
1415, 2.5000000e-02, 2.0123542e-01, 0.0
1416, 2.5500000e-02, 2.0123542e-01, 0.0
1417, 2.6000000e-02, 2.0123542e-01, 0.0
1418, 2.6500000e-02, 2.0123542e-01, 0.0
1419, 2.7000000e-02, 2.0123542e-01, 0.0
1420, 2.7500000e-02, 2.0123542e-01, 0.0
1421, 2.7931476e-02, 2.0123542e-01, 0.0
1422, 2.8000000e-02, 2.0123542e-01, 0.0
1423, 2.8500000e-02, 2.0123542e-01, 0.0
1424, 2.9000000e-02, 2.0123542e-01, 0.0
1425, 2.9500000e-02, 2.0123542e-01, 0.0
1426, 3.0000000e-02, 2.0123542e-01, 0.0
1427, 3.0500000e-02, 2.0123542e-01, 0.0
1428, 3.1000000e-02, 2.0123542e-01, 0.0
1429, 3.1500000e-02, 2.0123542e-01, 0.0
1430, 3.2000000e-02, 2.0123542e-01, 0.0
1431, 3.2121198e-02, 2.0123542e-01, 0.0
1432, 3.2500000e-02, 2.0123542e-01, 0.0
1433, 3.3000000e-02, 2.0123542e-01, 0.0
1434, 3.3500000e-02, 2.0123542e-01, 0.0
1435, 3.4000000e-02, 2.0123542e-01, 0.0
1436, 3.4500000e-02, 2.0123542e-01, 0.0
1437, 3.4914345e-02, 2.0123542e-01, 0.0
1438, 8.0000000e-03, 2.0173542e-01, 0.0
1439, 7.5000000e-03, 2.0173542e-01, 0.0
1440, 8.5000000e-03, 2.0173542e-01, 0.0
1441, 9.0000000e-03, 2.0173542e-01, 0.0
1442, 9.5000000e-03, 2.0173542e-01, 0.0
1443, 1.0000000e-02, 2.0173542e-01, 0.0
1444, 1.0500000e-02, 2.0173542e-01, 0.0
1445, 1.1000000e-02, 2.0173542e-01, 0.0
1446, 1.1500000e-02, 2.0173542e-01, 0.0
1447, 1.2000000e-02, 2.0173542e-01, 0.0
1448, 1.2500000e-02, 2.0173542e-01, 0.0
1449, 1.3000000e-02, 2.0173542e-01, 0.0
1450, 1.3353586e-02, 2.0173542e-01, 0.0
1451, 1.3500000e-02, 2.0173542e-01, 0.0
1452, 1.4000000e-02, 2.0173542e-01, 0.0
1453, 1.4353586e-02, 2.0173542e-01, 0.0
1454, 1.4500000e-02, 2.0173542e-01, 0.0
1455, 1.5000000e-02, 2.0173542e-01, 0.0
1456, 1.5500000e-02, 2.0173542e-01, 0.0
1457, 1.6000000e-02, 2.0173542e-01, 0.0
1458, 1.6500000e-02, 2.0173542e-01, 0.0
1459, 1.7000000e-02, 2.0173542e-01, 0.0
1460, 1.7500000e-02, 2.0173542e-01, 0.0
1461, 1.8000000e-02, 2.0173542e-01, 0.0
1462, 1.8500000e-02, 2.0173542e-01, 0.0
1463, 1.9000000e-02, 2.0173542e-01, 0.0
1464, 1.9500000e-02, 2.0173542e-01, 0.0
1465, 2.0000000e-02, 2.0173542e-01, 0.0
1466, 2.0500000e-02, 2.0173542e-01, 0.0
1467, 2.1000000e-02, 2.0173542e-01, 0.0
1468, 2.1500000e-02, 2.0173542e-01, 0.0
1469, 2.2000000e-02, 2.0173542e-01, 0.0
1470, 2.2500000e-02, 2.0173542e-01, 0.0
1471, 2.3000000e-02, 2.0173542e-01, 0.0
1472, 2.3500000e-02, 2.0173542e-01, 0.0
1473, 2.4000000e-02, 2.0173542e-01, 0.0
1474, 2.4500000e-02, 2.0173542e-01, 0.0
1475, 2.5000000e-02, 2.0173542e-01, 0.0
1476, 2.5500000e-02, 2.0173542e-01, 0.0
1477, 2.6000000e-02, 2.0173542e-01, 0.0
1478, 2.6500000e-02, 2.0173542e-01, 0.0
1479, 2.7000000e-02, 2.0173542e-01, 0.0
1480, 2.7500000e-02, 2.0173542e-01, 0.0
1481, 2.7931476e-02, 2.0173542e-01, 0.0
1482, 2.8000000e-02, 2.0173542e-01, 0.0
1483, 2.8500000e-02, 2.0173542e-01, 0.0
1484, 2.9000000e-02, 2.0173542e-01, 0.0
1485, 2.9500000e-02, 2.0173542e-01, 0.0
1486, 3.0000000e-02, 2.0173542e-01, 0.0
1487, 3.0500000e-02, 2.0173542e-01, 0.0
1488, 3.1000000e-02, 2.0173542e-01, 0.0
1489, 3.1500000e-02, 2.0173542e-01, 0.0
1490, 3.2000000e-02, 2.0173542e-01, 0.0
1491, 3.2121198e-02, 2.0173542e-01, 0.0
1492, 3.2500000e-02, 2.0173542e-01, 0.0
1493, 3.3000000e-02, 2.0173542e-01, 0.0
1494, 3.3500000e-02, 2.0173542e-01, 0.0
1495, 3.4000000e-02, 2.0173542e-01, 0.0
1496, 3.4500000e-02, 2.0173542e-01, 0.0
1497, 3.4914345e-02, 2.0173542e-01, 0.0
1498, 8.0000000e-03, 2.0223542e-01, 0.0
1499, 7.5000000e-03, 2.0223542e-01, 0.0
1500, 8.5000000e-03, 2.0223542e-01, 0.0
1501, 9.0000000e-03, 2.0223542e-01, 0.0
1502, 9.5000000e-03, 2.0223542e-01, 0.0
1503, 1.0000000e-02, 2.0223542e-01, 0.0
1504, 1.0500000e-02, 2.0223542e-01, 0.0
1505, 1.1000000e-02, 2.0223542e-01, 0.0
1506, 1.1500000e-02, 2.0223542e-01, 0.0
1507, 1.2000000e-02, 2.0223542e-01, 0.0
1508, 1.2500000e-02, 2.0223542e-01, 0.0
1509, 1.3000000e-02, 2.0223542e-01, 0.0
1510, 1.3353586e-02, 2.0223542e-01, 0.0
1511, 1.3500000e-02, 2.0223542e-01, 0.0
1512, 1.4000000e-02, 2.0223542e-01, 0.0
1513, 1.4353586e-02, 2.0223542e-01, 0.0
1514, 1.4500000e-02, 2.0223542e-01, 0.0
1515, 1.5000000e-02, 2.0223542e-01, 0.0
1516, 1.5500000e-02, 2.0223542e-01, 0.0
1517, 1.6000000e-02, 2.0223542e-01, 0.0
1518, 1.6500000e-02, 2.0223542e-01, 0.0
1519, 1.7000000e-02, 2.0223542e-01, 0.0
1520, 1.7500000e-02, 2.0223542e-01, 0.0
1521, 1.8000000e-02, 2.0223542e-01, 0.0
1522, 1.8500000e-02, 2.0223542e-01, 0.0
1523, 1.9000000e-02, 2.0223542e-01, 0.0
1524, 1.9500000e-02, 2.0223542e-01, 0.0
1525, 2.0000000e-02, 2.0223542e-01, 0.0
1526, 2.0500000e-02, 2.0223542e-01, 0.0
1527, 2.1000000e-02, 2.0223542e-01, 0.0
1528, 2.1500000e-02, 2.0223542e-01, 0.0
1529, 2.2000000e-02, 2.0223542e-01, 0.0
1530, 2.2500000e-02, 2.0223542e-01, 0.0
1531, 2.3000000e-02, 2.0223542e-01, 0.0
1532, 2.3500000e-02, 2.0223542e-01, 0.0
1533, 2.4000000e-02, 2.0223542e-01, 0.0
1534, 2.4500000e-02, 2.0223542e-01, 0.0
1535, 2.5000000e-02, 2.0223542e-01, 0.0
1536, 2.5500000e-02, 2.0223542e-01, 0.0
1537, 2.6000000e-02, 2.0223542e-01, 0.0
1538, 2.6500000e-02, 2.0223542e-01, 0.0
1539, 2.7000000e-02, 2.0223542e-01, 0.0
1540, 2.7500000e-02, 2.0223542e-01, 0.0
1541, 2.7931476e-02, 2.0223542e-01, 0.0
1542, 2.8000000e-02, 2.0223542e-01, 0.0
1543, 2.8500000e-02, 2.0223542e-01, 0.0
1544, 2.9000000e-02, 2.0223542e-01, 0.0
1545, 2.9500000e-02, 2.0223542e-01, 0.0
1546, 3.0000000e-02, 2.0223542e-01, 0.0
1547, 3.0500000e-02, 2.0223542e-01, 0.0
1548, 3.1000000e-02, 2.0223542e-01, 0.0
1549, 3.1500000e-02, 2.0223542e-01, 0.0
1550, 3.2000000e-02, 2.0223542e-01, 0.0
1551, 3.2121198e-02, 2.0223542e-01, 0.0
1552, 3.2500000e-02, 2.0223542e-01, 0.0
1553, 3.3000000e-02, 2.0223542e-01, 0.0
1554, 3.3500000e-02, 2.0223542e-01, 0.0
1555, 3.4000000e-02, 2.0223542e-01, 0.0
1556, 3.4500000e-02, 2.0223542e-01, 0.0
1557, 3.4914345e-02, 2.0223542e-01, 0.0
1558, 8.0000000e-03, 2.0273542e-01, 0.0
1559, 7.5000000e-03, 2.0273542e-01, 0.0
1560, 8.5000000e-03, 2.0273542e-01, 0.0
1561, 9.0000000e-03, 2.0273542e-01, 0.0
1562, 9.5000000e-03, 2.0273542e-01, 0.0
1563, 1.0000000e-02, 2.0273542e-01, 0.0
1564, 1.0500000e-02, 2.0273542e-01, 0.0
1565, 1.1000000e-02, 2.0273542e-01, 0.0
1566, 1.1500000e-02, 2.0273542e-01, 0.0
1567, 1.2000000e-02, 2.0273542e-01, 0.0
1568, 1.2500000e-02, 2.0273542e-01, 0.0
1569, 1.3000000e-02, 2.0273542e-01, 0.0
1570, 1.3353586e-02, 2.0273542e-01, 0.0
1571, 1.3500000e-02, 2.0273542e-01, 0.0
1572, 1.4000000e-02, 2.0273542e-01, 0.0
1573, 1.4353586e-02, 2.0273542e-01, 0.0
1574, 1.4500000e-02, 2.0273542e-01, 0.0
1575, 1.5000000e-02, 2.0273542e-01, 0.0
1576, 1.5500000e-02, 2.0273542e-01, 0.0
1577, 1.6000000e-02, 2.0273542e-01, 0.0
1578, 1.6500000e-02, 2.0273542e-01, 0.0
1579, 1.7000000e-02, 2.0273542e-01, 0.0
1580, 1.7500000e-02, 2.0273542e-01, 0.0
1581, 1.8000000e-02, 2.0273542e-01, 0.0
1582, 1.8500000e-02, 2.0273542e-01, 0.0
1583, 1.9000000e-02, 2.0273542e-01, 0.0
1584, 1.9500000e-02, 2.0273542e-01, 0.0
1585, 2.0000000e-02, 2.0273542e-01, 0.0
1586, 2.0500000e-02, 2.0273542e-01, 0.0
1587, 2.1000000e-02, 2.0273542e-01, 0.0
1588, 2.1500000e-02, 2.0273542e-01, 0.0
1589, 2.2000000e-02, 2.0273542e-01, 0.0
1590, 2.2500000e-02, 2.0273542e-01, 0.0
1591, 2.3000000e-02, 2.0273542e-01, 0.0
1592, 2.3500000e-02, 2.0273542e-01, 0.0
1593, 2.4000000e-02, 2.0273542e-01, 0.0
1594, 2.4500000e-02, 2.0273542e-01, 0.0
1595, 2.5000000e-02, 2.0273542e-01, 0.0
1596, 2.5500000e-02, 2.0273542e-01, 0.0
1597, 2.6000000e-02, 2.0273542e-01, 0.0
1598, 2.6500000e-02, 2.0273542e-01, 0.0
1599, 2.7000000e-02, 2.0273542e-01, 0.0
1600, 2.7500000e-02, 2.0273542e-01, 0.0
1601, 2.7931476e-02, 2.0273542e-01, 0.0
1602, 2.8000000e-02, 2.0273542e-01, 0.0
1603, 2.8500000e-02, 2.0273542e-01, 0.0
1604, 2.9000000e-02, 2.0273542e-01, 0.0
1605, 2.9500000e-02, 2.0273542e-01, 0.0
1606, 3.0000000e-02, 2.0273542e-01, 0.0
1607, 3.0500000e-02, 2.0273542e-01, 0.0
1608, 3.1000000e-02, 2.0273542e-01, 0.0
1609, 3.1500000e-02, 2.0273542e-01, 0.0
1610, 3.2000000e-02, 2.0273542e-01, 0.0
1611, 3.2121198e-02, 2.0273542e-01, 0.0
1612, 3.2500000e-02, 2.0273542e-01, 0.0
1613, 3.3000000e-02, 2.0273542e-01, 0.0
1614, 3.3500000e-02, 2.0273542e-01, 0.0
1615, 3.4000000e-02, 2.0273542e-01, 0.0
1616, 3.4500000e-02, 2.0273542e-01, 0.0
1617, 3.4914345e-02, 2.0273542e-01, 0.0
1618, 8.0000000e-03, 2.0323542e-01, 0.0
1619, 7.5000000e-03, 2.0323542e-01, 0.0
1620, 8.5000000e-03, 2.0323542e-01, 0.0
1621, 9.0000000e-03, 2.0323542e-01, 0.0
1622, 9.5000000e-03, 2.0323542e-01, 0.0
1623, 1.0000000e-02, 2.0323542e-01, 0.0
1624, 1.0500000e-02, 2.0323542e-01, 0.0
1625, 1.1000000e-02, 2.0323542e-01, 0.0
1626, 1.1500000e-02, 2.0323542e-01, 0.0
1627, 1.2000000e-02, 2.0323542e-01, 0.0
1628, 1.2500000e-02, 2.0323542e-01, 0.0
1629, 1.3000000e-02, 2.0323542e-01, 0.0
1630, 1.3353586e-02, 2.0323542e-01, 0.0
1631, 1.3500000e-02, 2.0323542e-01, 0.0
1632, 1.4000000e-02, 2.0323542e-01, 0.0
1633, 1.4353586e-02, 2.0323542e-01, 0.0
1634, 1.4500000e-02, 2.0323542e-01, 0.0
1635, 1.5000000e-02, 2.0323542e-01, 0.0
1636, 1.5500000e-02, 2.0323542e-01, 0.0
1637, 1.6000000e-02, 2.0323542e-01, 0.0
1638, 1.6500000e-02, 2.0323542e-01, 0.0
1639, 1.7000000e-02, 2.0323542e-01, 0.0
1640, 1.7500000e-02, 2.0323542e-01, 0.0
1641, 1.8000000e-02, 2.0323542e-01, 0.0
1642, 1.8500000e-02, 2.0323542e-01, 0.0
1643, 1.9000000e-02, 2.0323542e-01, 0.0
1644, 1.9500000e-02, 2.0323542e-01, 0.0
1645, 2.0000000e-02, 2.0323542e-01, 0.0
1646, 2.0500000e-02, 2.0323542e-01, 0.0
1647, 2.1000000e-02, 2.0323542e-01, 0.0
1648, 2.1500000e-02, 2.0323542e-01, 0.0
1649, 2.2000000e-02, 2.0323542e-01, 0.0
1650, 2.2500000e-02, 2.0323542e-01, 0.0
1651, 2.3000000e-02, 2.0323542e-01, 0.0
1652, 2.3500000e-02, 2.0323542e-01, 0.0
1653, 2.4000000e-02, 2.0323542e-01, 0.0
1654, 2.4500000e-02, 2.0323542e-01, 0.0
1655, 2.5000000e-02, 2.0323542e-01, 0.0
1656, 2.5500000e-02, 2.0323542e-01, 0.0
1657, 2.6000000e-02, 2.0323542e-01, 0.0
1658, 2.6500000e-02, 2.0323542e-01, 0.0
1659, 2.7000000e-02, 2.0323542e-01, 0.0
1660, 2.7500000e-02, 2.0323542e-01, 0.0
1661, 2.7931476e-02, 2.0323542e-01, 0.0
1662, 2.8000000e-02, 2.0323542e-01, 0.0
1663, 2.8500000e-02, 2.0323542e-01, 0.0
1664, 2.9000000e-02, 2.0323542e-01, 0.0
1665, 2.9500000e-02, 2.0323542e-01, 0.0
1666, 3.0000000e-02, 2.0323542e-01, 0.0
1667, 3.0500000e-02, 2.0323542e-01, 0.0
1668, 3.1000000e-02, 2.0323542e-01, 0.0
1669, 3.1500000e-02, 2.0323542e-01, 0.0
1670, 3.2000000e-02, 2.0323542e-01, 0.0
1671, 3.2121198e-02, 2.0323542e-01, 0.0
1672, 3.2500000e-02, 2.0323542e-01, 0.0
1673, 3.3000000e-02, 2.0323542e-01, 0.0
1674, 3.3500000e-02, 2.0323542e-01, 0.0
1675, 3.4000000e-02, 2.0323542e-01, 0.0
1676, 3.4500000e-02, 2.0323542e-01, 0.0
1677, 3.4914345e-02, 2.0323542e-01, 0.0
1678, 8.0000000e-03, 2.0373542e-01, 0.0
1679, 7.5000000e-03, 2.0373542e-01, 0.0
1680, 8.5000000e-03, 2.0373542e-01, 0.0
1681, 9.0000000e-03, 2.0373542e-01, 0.0
1682, 9.5000000e-03, 2.0373542e-01, 0.0
1683, 1.0000000e-02, 2.0373542e-01, 0.0
1684, 1.0500000e-02, 2.0373542e-01, 0.0
1685, 1.1000000e-02, 2.0373542e-01, 0.0
1686, 1.1500000e-02, 2.0373542e-01, 0.0
1687, 1.2000000e-02, 2.0373542e-01, 0.0
1688, 1.2500000e-02, 2.0373542e-01, 0.0
1689, 1.3000000e-02, 2.0373542e-01, 0.0
1690, 1.3353586e-02, 2.0373542e-01, 0.0
1691, 1.3500000e-02, 2.0373542e-01, 0.0
1692, 1.4000000e-02, 2.0373542e-01, 0.0
1693, 1.4353586e-02, 2.0373542e-01, 0.0
1694, 1.4500000e-02, 2.0373542e-01, 0.0
1695, 1.5000000e-02, 2.0373542e-01, 0.0
1696, 1.5500000e-02, 2.0373542e-01, 0.0
1697, 1.6000000e-02, 2.0373542e-01, 0.0
1698, 1.6500000e-02, 2.0373542e-01, 0.0
1699, 1.7000000e-02, 2.0373542e-01, 0.0
1700, 1.7500000e-02, 2.0373542e-01, 0.0
1701, 1.8000000e-02, 2.0373542e-01, 0.0
1702, 1.8500000e-02, 2.0373542e-01, 0.0
1703, 1.9000000e-02, 2.0373542e-01, 0.0
1704, 1.9500000e-02, 2.0373542e-01, 0.0
1705, 2.0000000e-02, 2.0373542e-01, 0.0
1706, 2.0500000e-02, 2.0373542e-01, 0.0
1707, 2.1000000e-02, 2.0373542e-01, 0.0
1708, 2.1500000e-02, 2.0373542e-01, 0.0
1709, 2.2000000e-02, 2.0373542e-01, 0.0
1710, 2.2500000e-02, 2.0373542e-01, 0.0
1711, 2.3000000e-02, 2.0373542e-01, 0.0
1712, 2.3500000e-02, 2.0373542e-01, 0.0
1713, 2.4000000e-02, 2.0373542e-01, 0.0
1714, 2.4500000e-02, 2.0373542e-01, 0.0
1715, 2.5000000e-02, 2.0373542e-01, 0.0
1716, 2.5500000e-02, 2.0373542e-01, 0.0
1717, 2.6000000e-02, 2.0373542e-01, 0.0
1718, 2.6500000e-02, 2.0373542e-01, 0.0
1719, 2.7000000e-02, 2.0373542e-01, 0.0
1720, 2.7500000e-02, 2.0373542e-01, 0.0
1721, 2.7931476e-02, 2.0373542e-01, 0.0
1722, 2.8000000e-02, 2.0373542e-01, 0.0
1723, 2.8500000e-02, 2.0373542e-01, 0.0
1724, 2.9000000e-02, 2.0373542e-01, 0.0
1725, 2.9500000e-02, 2.0373542e-01, 0.0
1726, 3.0000000e-02, 2.0373542e-01, 0.0
1727, 3.0500000e-02, 2.0373542e-01, 0.0
1728, 3.1000000e-02, 2.0373542e-01, 0.0
1729, 3.1500000e-02, 2.0373542e-01, 0.0
1730, 3.2000000e-02, 2.0373542e-01, 0.0
1731, 3.2121198e-02, 2.0373542e-01, 0.0
1732, 3.2500000e-02, 2.0373542e-01, 0.0
1733, 3.3000000e-02, 2.0373542e-01, 0.0
1734, 3.3500000e-02, 2.0373542e-01, 0.0
1735, 3.4000000e-02, 2.0373542e-01, 0.0
1736, 3.4500000e-02, 2.0373542e-01, 0.0
1737, 3.4914345e-02, 2.0373542e-01, 0.0
1738, 8.0000000e-03, 2.0423542e-01, 0.0
1739, 7.5000000e-03, 2.0423542e-01, 0.0
1740, 8.5000000e-03, 2.0423542e-01, 0.0
1741, 9.0000000e-03, 2.0423542e-01, 0.0
1742, 9.5000000e-03, 2.0423542e-01, 0.0
1743, 1.0000000e-02, 2.0423542e-01, 0.0
1744, 1.0500000e-02, 2.0423542e-01, 0.0
1745, 1.1000000e-02, 2.0423542e-01, 0.0
1746, 1.1500000e-02, 2.0423542e-01, 0.0
1747, 1.2000000e-02, 2.0423542e-01, 0.0
1748, 1.2500000e-02, 2.0423542e-01, 0.0
1749, 1.3000000e-02, 2.0423542e-01, 0.0
1750, 1.3353586e-02, 2.0423542e-01, 0.0
1751, 1.3500000e-02, 2.0423542e-01, 0.0
1752, 1.4000000e-02, 2.0423542e-01, 0.0
1753, 1.4353586e-02, 2.0423542e-01, 0.0
1754, 1.4500000e-02, 2.0423542e-01, 0.0
1755, 1.5000000e-02, 2.0423542e-01, 0.0
1756, 1.5500000e-02, 2.0423542e-01, 0.0
1757, 1.6000000e-02, 2.0423542e-01, 0.0
1758, 1.6500000e-02, 2.0423542e-01, 0.0
1759, 1.7000000e-02, 2.0423542e-01, 0.0
1760, 1.7500000e-02, 2.0423542e-01, 0.0
1761, 1.8000000e-02, 2.0423542e-01, 0.0
1762, 1.8500000e-02, 2.0423542e-01, 0.0
1763, 1.9000000e-02, 2.0423542e-01, 0.0
1764, 1.9500000e-02, 2.0423542e-01, 0.0
1765, 2.0000000e-02, 2.0423542e-01, 0.0
1766, 2.0500000e-02, 2.0423542e-01, 0.0
1767, 2.1000000e-02, 2.0423542e-01, 0.0
1768, 2.1500000e-02, 2.0423542e-01, 0.0
1769, 2.2000000e-02, 2.0423542e-01, 0.0
1770, 2.2500000e-02, 2.0423542e-01, 0.0
1771, 2.3000000e-02, 2.0423542e-01, 0.0
1772, 2.3500000e-02, 2.0423542e-01, 0.0
1773, 2.4000000e-02, 2.0423542e-01, 0.0
1774, 2.4500000e-02, 2.0423542e-01, 0.0
1775, 2.5000000e-02, 2.0423542e-01, 0.0
1776, 2.5500000e-02, 2.0423542e-01, 0.0
1777, 2.6000000e-02, 2.0423542e-01, 0.0
1778, 2.6500000e-02, 2.0423542e-01, 0.0
1779, 2.7000000e-02, 2.0423542e-01, 0.0
1780, 2.7500000e-02, 2.0423542e-01, 0.0
1781, 2.7931476e-02, 2.0423542e-01, 0.0
1782, 2.8000000e-02, 2.0423542e-01, 0.0
1783, 2.8500000e-02, 2.0423542e-01, 0.0
1784, 2.9000000e-02, 2.0423542e-01, 0.0
1785, 2.9500000e-02, 2.0423542e-01, 0.0
1786, 3.0000000e-02, 2.0423542e-01, 0.0
1787, 3.0500000e-02, 2.0423542e-01, 0.0
1788, 3.1000000e-02, 2.0423542e-01, 0.0
1789, 3.1500000e-02, 2.0423542e-01, 0.0
1790, 3.2000000e-02, 2.0423542e-01, 0.0
1791, 3.2121198e-02, 2.0423542e-01, 0.0
1792, 3.2500000e-02, 2.0423542e-01, 0.0
1793, 3.3000000e-02, 2.0423542e-01, 0.0
1794, 3.3500000e-02, 2.0423542e-01, 0.0
1795, 3.4000000e-02, 2.0423542e-01, 0.0
1796, 3.4500000e-02, 2.0423542e-01, 0.0
1797, 3.4914345e-02, 2.0423542e-01, 0.0
1798, 8.0000000e-03, 2.0473542e-01, 0.0
1799, 7.5000000e-03, 2.0473542e-01, 0.0
1800, 8.5000000e-03, 2.0473542e-01, 0.0
1801, 9.0000000e-03, 2.0473542e-01, 0.0
1802, 9.5000000e-03, 2.0473542e-01, 0.0
1803, 1.0000000e-02, 2.0473542e-01, 0.0
1804, 1.0500000e-02, 2.0473542e-01, 0.0
1805, 1.1000000e-02, 2.0473542e-01, 0.0
1806, 1.1500000e-02, 2.0473542e-01, 0.0
1807, 1.2000000e-02, 2.0473542e-01, 0.0
1808, 1.2500000e-02, 2.0473542e-01, 0.0
1809, 1.3000000e-02, 2.0473542e-01, 0.0
1810, 1.3353586e-02, 2.0473542e-01, 0.0
1811, 1.3500000e-02, 2.0473542e-01, 0.0
1812, 1.4000000e-02, 2.0473542e-01, 0.0
1813, 1.4353586e-02, 2.0473542e-01, 0.0
1814, 1.4500000e-02, 2.0473542e-01, 0.0
1815, 1.5000000e-02, 2.0473542e-01, 0.0
1816, 1.5500000e-02, 2.0473542e-01, 0.0
1817, 1.6000000e-02, 2.0473542e-01, 0.0
1818, 1.6500000e-02, 2.0473542e-01, 0.0
1819, 1.7000000e-02, 2.0473542e-01, 0.0
1820, 1.7500000e-02, 2.0473542e-01, 0.0
1821, 1.8000000e-02, 2.0473542e-01, 0.0
1822, 1.8500000e-02, 2.0473542e-01, 0.0
1823, 1.9000000e-02, 2.0473542e-01, 0.0
1824, 1.9500000e-02, 2.0473542e-01, 0.0
1825, 2.0000000e-02, 2.0473542e-01, 0.0
1826, 2.0500000e-02, 2.0473542e-01, 0.0
1827, 2.1000000e-02, 2.0473542e-01, 0.0
1828, 2.1500000e-02, 2.0473542e-01, 0.0
1829, 2.2000000e-02, 2.0473542e-01, 0.0
1830, 2.2500000e-02, 2.0473542e-01, 0.0
1831, 2.3000000e-02, 2.0473542e-01, 0.0
1832, 2.3500000e-02, 2.0473542e-01, 0.0
1833, 2.4000000e-02, 2.0473542e-01, 0.0
1834, 2.4500000e-02, 2.0473542e-01, 0.0
1835, 2.5000000e-02, 2.0473542e-01, 0.0
1836, 2.5500000e-02, 2.0473542e-01, 0.0
1837, 2.6000000e-02, 2.0473542e-01, 0.0
1838, 2.6500000e-02, 2.0473542e-01, 0.0
1839, 2.7000000e-02, 2.0473542e-01, 0.0
1840, 2.7500000e-02, 2.0473542e-01, 0.0
1841, 2.7931476e-02, 2.0473542e-01, 0.0
1842, 2.8000000e-02, 2.0473542e-01, 0.0
1843, 2.8500000e-02, 2.0473542e-01, 0.0
1844, 2.9000000e-02, 2.0473542e-01, 0.0
1845, 2.9500000e-02, 2.0473542e-01, 0.0
1846, 3.0000000e-02, 2.0473542e-01, 0.0
1847, 3.0500000e-02, 2.0473542e-01, 0.0
1848, 3.1000000e-02, 2.0473542e-01, 0.0
1849, 3.1500000e-02, 2.0473542e-01, 0.0
1850, 3.2000000e-02, 2.0473542e-01, 0.0
1851, 3.2121198e-02, 2.0473542e-01, 0.0
1852, 3.2500000e-02, 2.0473542e-01, 0.0
1853, 3.3000000e-02, 2.0473542e-01, 0.0
1854, 3.3500000e-02, 2.0473542e-01, 0.0
1855, 3.4000000e-02, 2.0473542e-01, 0.0
1856, 3.4500000e-02, 2.0473542e-01, 0.0
1857, 3.4914345e-02, 2.0473542e-01, 0.0
1858, 8.0000000e-03, 2.0523542e-01, 0.0
1859, 7.5000000e-03, 2.0523542e-01, 0.0
1860, 8.5000000e-03, 2.0523542e-01, 0.0
1861, 9.0000000e-03, 2.0523542e-01, 0.0
1862, 9.5000000e-03, 2.0523542e-01, 0.0
1863, 1.0000000e-02, 2.0523542e-01, 0.0
1864, 1.0500000e-02, 2.0523542e-01, 0.0
1865, 1.1000000e-02, 2.0523542e-01, 0.0
1866, 1.1500000e-02, 2.0523542e-01, 0.0
1867, 1.2000000e-02, 2.0523542e-01, 0.0
1868, 1.2500000e-02, 2.0523542e-01, 0.0
1869, 1.3000000e-02, 2.0523542e-01, 0.0
1870, 1.3353586e-02, 2.0523542e-01, 0.0
1871, 1.3500000e-02, 2.0523542e-01, 0.0
1872, 1.4000000e-02, 2.0523542e-01, 0.0
1873, 1.4353586e-02, 2.0523542e-01, 0.0
1874, 1.4500000e-02, 2.0523542e-01, 0.0
1875, 1.5000000e-02, 2.0523542e-01, 0.0
1876, 1.5500000e-02, 2.0523542e-01, 0.0
1877, 1.6000000e-02, 2.0523542e-01, 0.0
1878, 1.6500000e-02, 2.0523542e-01, 0.0
1879, 1.7000000e-02, 2.0523542e-01, 0.0
1880, 1.7500000e-02, 2.0523542e-01, 0.0
1881, 1.8000000e-02, 2.0523542e-01, 0.0
1882, 1.8500000e-02, 2.0523542e-01, 0.0
1883, 1.9000000e-02, 2.0523542e-01, 0.0
1884, 1.9500000e-02, 2.0523542e-01, 0.0
1885, 2.0000000e-02, 2.0523542e-01, 0.0
1886, 2.0500000e-02, 2.0523542e-01, 0.0
1887, 2.1000000e-02, 2.0523542e-01, 0.0
1888, 2.1500000e-02, 2.0523542e-01, 0.0
1889, 2.2000000e-02, 2.0523542e-01, 0.0
1890, 2.2500000e-02, 2.0523542e-01, 0.0
1891, 2.3000000e-02, 2.0523542e-01, 0.0
1892, 2.3500000e-02, 2.0523542e-01, 0.0
1893, 2.4000000e-02, 2.0523542e-01, 0.0
1894, 2.4500000e-02, 2.0523542e-01, 0.0
1895, 2.5000000e-02, 2.0523542e-01, 0.0
1896, 2.5500000e-02, 2.0523542e-01, 0.0
1897, 2.6000000e-02, 2.0523542e-01, 0.0
1898, 2.6500000e-02, 2.0523542e-01, 0.0
1899, 2.7000000e-02, 2.0523542e-01, 0.0
1900, 2.7500000e-02, 2.0523542e-01, 0.0
1901, 2.7931476e-02, 2.0523542e-01, 0.0
1902, 2.8000000e-02, 2.0523542e-01, 0.0
1903, 2.8500000e-02, 2.0523542e-01, 0.0
1904, 2.9000000e-02, 2.0523542e-01, 0.0
1905, 2.9500000e-02, 2.0523542e-01, 0.0
1906, 3.0000000e-02, 2.0523542e-01, 0.0
1907, 3.0500000e-02, 2.0523542e-01, 0.0
1908, 3.1000000e-02, 2.0523542e-01, 0.0
1909, 3.1500000e-02, 2.0523542e-01, 0.0
1910, 3.2000000e-02, 2.0523542e-01, 0.0
1911, 3.2121198e-02, 2.0523542e-01, 0.0
1912, 3.2500000e-02, 2.0523542e-01, 0.0
1913, 3.3000000e-02, 2.0523542e-01, 0.0
1914, 3.3500000e-02, 2.0523542e-01, 0.0
1915, 3.4000000e-02, 2.0523542e-01, 0.0
1916, 3.4500000e-02, 2.0523542e-01, 0.0
1917, 3.4914345e-02, 2.0523542e-01, 0.0
1918, 8.0000000e-03, 2.0573542e-01, 0.0
1919, 7.5000000e-03, 2.0573542e-01, 0.0
1920, 8.5000000e-03, 2.0573542e-01, 0.0
1921, 9.0000000e-03, 2.0573542e-01, 0.0
1922, 9.5000000e-03, 2.0573542e-01, 0.0
1923, 1.0000000e-02, 2.0573542e-01, 0.0
1924, 1.0500000e-02, 2.0573542e-01, 0.0
1925, 1.1000000e-02, 2.0573542e-01, 0.0
1926, 1.1500000e-02, 2.0573542e-01, 0.0
1927, 1.2000000e-02, 2.0573542e-01, 0.0
1928, 1.2500000e-02, 2.0573542e-01, 0.0
1929, 1.3000000e-02, 2.0573542e-01, 0.0
1930, 1.3353586e-02, 2.0573542e-01, 0.0
1931, 1.3500000e-02, 2.0573542e-01, 0.0
1932, 1.4000000e-02, 2.0573542e-01, 0.0
1933, 1.4353586e-02, 2.0573542e-01, 0.0
1934, 1.4500000e-02, 2.0573542e-01, 0.0
1935, 1.5000000e-02, 2.0573542e-01, 0.0
1936, 1.5500000e-02, 2.0573542e-01, 0.0
1937, 1.6000000e-02, 2.0573542e-01, 0.0
1938, 1.6500000e-02, 2.0573542e-01, 0.0
1939, 1.7000000e-02, 2.0573542e-01, 0.0
1940, 1.7500000e-02, 2.0573542e-01, 0.0
1941, 1.8000000e-02, 2.0573542e-01, 0.0
1942, 1.8500000e-02, 2.0573542e-01, 0.0
1943, 1.9000000e-02, 2.0573542e-01, 0.0
1944, 1.9500000e-02, 2.0573542e-01, 0.0
1945, 2.0000000e-02, 2.0573542e-01, 0.0
1946, 2.0500000e-02, 2.0573542e-01, 0.0
1947, 2.1000000e-02, 2.0573542e-01, 0.0
1948, 2.1500000e-02, 2.0573542e-01, 0.0
1949, 2.2000000e-02, 2.0573542e-01, 0.0
1950, 2.2500000e-02, 2.0573542e-01, 0.0
1951, 2.3000000e-02, 2.0573542e-01, 0.0
1952, 2.3500000e-02, 2.0573542e-01, 0.0
1953, 2.4000000e-02, 2.0573542e-01, 0.0
1954, 2.4500000e-02, 2.0573542e-01, 0.0
1955, 2.5000000e-02, 2.0573542e-01, 0.0
1956, 2.5500000e-02, 2.0573542e-01, 0.0
1957, 2.6000000e-02, 2.0573542e-01, 0.0
1958, 2.6500000e-02, 2.0573542e-01, 0.0
1959, 2.7000000e-02, 2.0573542e-01, 0.0
1960, 2.7500000e-02, 2.0573542e-01, 0.0
1961, 2.7931476e-02, 2.0573542e-01, 0.0
1962, 2.8000000e-02, 2.0573542e-01, 0.0
1963, 2.8500000e-02, 2.0573542e-01, 0.0
1964, 2.9000000e-02, 2.0573542e-01, 0.0
1965, 2.9500000e-02, 2.0573542e-01, 0.0
1966, 3.0000000e-02, 2.0573542e-01, 0.0
1967, 3.0500000e-02, 2.0573542e-01, 0.0
1968, 3.1000000e-02, 2.0573542e-01, 0.0
1969, 3.1500000e-02, 2.0573542e-01, 0.0
1970, 3.2000000e-02, 2.0573542e-01, 0.0
1971, 3.2121198e-02, 2.0573542e-01, 0.0
1972, 3.2500000e-02, 2.0573542e-01, 0.0
1973, 3.3000000e-02, 2.0573542e-01, 0.0
1974, 3.3500000e-02, 2.0573542e-01, 0.0
1975, 3.4000000e-02, 2.0573542e-01, 0.0
1976, 3.4500000e-02, 2.0573542e-01, 0.0
1977, 3.4914345e-02, 2.0573542e-01, 0.0
1978, 8.0000000e-03, 2.0595633e-01, 0.0
1979, 7.5000000e-03, 2.0595633e-01, 0.0
1980, 8.5000000e-03, 2.0595633e-01, 0.0
1981, 9.0000000e-03, 2.0595633e-01, 0.0
1982, 9.5000000e-03, 2.0595633e-01, 0.0
1983, 1.0000000e-02, 2.0595633e-01, 0.0
1984, 1.0500000e-02, 2.0595633e-01, 0.0
1985, 1.1000000e-02, 2.0595633e-01, 0.0
1986, 1.1500000e-02, 2.0595633e-01, 0.0
1987, 1.2000000e-02, 2.0595633e-01, 0.0
1988, 1.2500000e-02, 2.0595633e-01, 0.0
1989, 1.3000000e-02, 2.0595633e-01, 0.0
1990, 1.3353586e-02, 2.0595633e-01, 0.0
1991, 1.3500000e-02, 2.0595633e-01, 0.0
1992, 1.4000000e-02, 2.0595633e-01, 0.0
1993, 1.4353586e-02, 2.0595633e-01, 0.0
1994, 1.4500000e-02, 2.0595633e-01, 0.0
1995, 1.5000000e-02, 2.0595633e-01, 0.0
1996, 1.5500000e-02, 2.0595633e-01, 0.0
1997, 1.6000000e-02, 2.0595633e-01, 0.0
1998, 1.6500000e-02, 2.0595633e-01, 0.0
1999, 1.7000000e-02, 2.0595633e-01, 0.0
2000, 1.7500000e-02, 2.0595633e-01, 0.0
2001, 1.8000000e-02, 2.0595633e-01, 0.0
2002, 1.8500000e-02, 2.0595633e-01, 0.0
2003, 1.9000000e-02, 2.0595633e-01, 0.0
2004, 1.9500000e-02, 2.0595633e-01, 0.0
2005, 2.0000000e-02, 2.0595633e-01, 0.0
2006, 2.0500000e-02, 2.0595633e-01, 0.0
2007, 2.1000000e-02, 2.0595633e-01, 0.0
2008, 2.1500000e-02, 2.0595633e-01, 0.0
2009, 2.2000000e-02, 2.0595633e-01, 0.0
2010, 2.2500000e-02, 2.0595633e-01, 0.0
2011, 2.3000000e-02, 2.0595633e-01, 0.0
2012, 2.3500000e-02, 2.0595633e-01, 0.0
2013, 2.4000000e-02, 2.0595633e-01, 0.0
2014, 2.4500000e-02, 2.0595633e-01, 0.0
2015, 2.5000000e-02, 2.0595633e-01, 0.0
2016, 2.5500000e-02, 2.0595633e-01, 0.0
2017, 2.6000000e-02, 2.0595633e-01, 0.0
2018, 2.6500000e-02, 2.0595633e-01, 0.0
2019, 2.7000000e-02, 2.0595633e-01, 0.0
2020, 2.7500000e-02, 2.0595633e-01, 0.0
2021, 2.7931476e-02, 2.0595633e-01, 0.0
2022, 2.8000000e-02, 2.0595633e-01, 0.0
2023, 2.8500000e-02, 2.0595633e-01, 0.0
2024, 2.9000000e-02, 2.0595633e-01, 0.0
2025, 2.9500000e-02, 2.0595633e-01, 0.0
2026, 3.0000000e-02, 2.0595633e-01, 0.0
2027, 3.0500000e-02, 2.0595633e-01, 0.0
2028, 3.1000000e-02, 2.0595633e-01, 0.0
2029, 3.1500000e-02, 2.0595633e-01, 0.0
2030, 3.2000000e-02, 2.0595633e-01, 0.0
2031, 3.2121198e-02, 2.0595633e-01, 0.0
2032, 3.2500000e-02, 2.0595633e-01, 0.0
2033, 3.3000000e-02, 2.0595633e-01, 0.0
2034, 3.3500000e-02, 2.0595633e-01, 0.0
2035, 3.4000000e-02, 2.0595633e-01, 0.0
2036, 3.4500000e-02, 2.0595633e-01, 0.0
2037, 3.4914345e-02, 2.0595633e-01, 0.0
2038, 8.0000000e-03, 2.0623542e-01, 0.0
2039, 7.5000000e-03, 2.0623542e-01, 0.0
2040, 8.5000000e-03, 2.0623542e-01, 0.0
2041, 9.0000000e-03, 2.0623542e-01, 0.0
2042, 9.5000000e-03, 2.0623542e-01, 0.0
2043, 1.0000000e-02, 2.0623542e-01, 0.0
2044, 1.0500000e-02, 2.0623542e-01, 0.0
2045, 1.1000000e-02, 2.0623542e-01, 0.0
2046, 1.1500000e-02, 2.0623542e-01, 0.0
2047, 1.2000000e-02, 2.0623542e-01, 0.0
2048, 1.2500000e-02, 2.0623542e-01, 0.0
2049, 1.3000000e-02, 2.0623542e-01, 0.0
2050, 1.3353586e-02, 2.0623542e-01, 0.0
2051, 1.3500000e-02, 2.0623542e-01, 0.0
2052, 1.4000000e-02, 2.0623542e-01, 0.0
2053, 1.4353586e-02, 2.0623542e-01, 0.0
2054, 2.8500000e-02, 2.0623542e-01, 0.0
2055, 2.8000000e-02, 2.0623542e-01, 0.0
2056, 2.9000000e-02, 2.0623542e-01, 0.0
2057, 2.9500000e-02, 2.0623542e-01, 0.0
2058, 3.0000000e-02, 2.0623542e-01, 0.0
2059, 3.0500000e-02, 2.0623542e-01, 0.0
2060, 3.1000000e-02, 2.0623542e-01, 0.0
2061, 3.1500000e-02, 2.0623542e-01, 0.0
2062, 3.2000000e-02, 2.0623542e-01, 0.0
2063, 3.2121198e-02, 2.0623542e-01, 0.0
2064, 3.2500000e-02, 2.0623542e-01, 0.0
2065, 3.3000000e-02, 2.0623542e-01, 0.0
2066, 3.3500000e-02, 2.0623542e-01, 0.0
2067, 3.4000000e-02, 2.0623542e-01, 0.0
2068, 3.4500000e-02, 2.0623542e-01, 0.0
2069, 3.4914345e-02, 2.0623542e-01, 0.0
2070, 8.0000000e-03, 2.0673542e-01, 0.0
2071, 7.5000000e-03, 2.0673542e-01, 0.0
2072, 8.5000000e-03, 2.0673542e-01, 0.0
2073, 9.0000000e-03, 2.0673542e-01, 0.0
2074, 9.5000000e-03, 2.0673542e-01, 0.0
2075, 1.0000000e-02, 2.0673542e-01, 0.0
2076, 1.0500000e-02, 2.0673542e-01, 0.0
2077, 1.1000000e-02, 2.0673542e-01, 0.0
2078, 1.1500000e-02, 2.0673542e-01, 0.0
2079, 1.2000000e-02, 2.0673542e-01, 0.0
2080, 1.2500000e-02, 2.0673542e-01, 0.0
2081, 1.3000000e-02, 2.0673542e-01, 0.0
2082, 1.3353586e-02, 2.0673542e-01, 0.0
2083, 1.3500000e-02, 2.0673542e-01, 0.0
2084, 1.4000000e-02, 2.0673542e-01, 0.0
2085, 1.4353586e-02, 2.0673542e-01, 0.0
2086, 2.9000000e-02, 2.0673542e-01, 0.0
2087, 2.8500000e-02, 2.0673542e-01, 0.0
2088, 2.9500000e-02, 2.0673542e-01, 0.0
2089, 3.0000000e-02, 2.0673542e-01, 0.0
2090, 3.0500000e-02, 2.0673542e-01, 0.0
2091, 3.1000000e-02, 2.0673542e-01, 0.0
2092, 3.1500000e-02, 2.0673542e-01, 0.0
2093, 3.2000000e-02, 2.0673542e-01, 0.0
2094, 3.2121198e-02, 2.0673542e-01, 0.0
2095, 3.2500000e-02, 2.0673542e-01, 0.0
2096, 3.3000000e-02, 2.0673542e-01, 0.0
2097, 3.3500000e-02, 2.0673542e-01, 0.0
2098, 3.4000000e-02, 2.0673542e-01, 0.0
2099, 3.4500000e-02, 2.0673542e-01, 0.0
2100, 3.4914345e-02, 2.0673542e-01, 0.0
2101, 8.0000000e-03, 2.0723542e-01, 0.0
2102, 7.5000000e-03, 2.0723542e-01, 0.0
2103, 8.5000000e-03, 2.0723542e-01, 0.0
2104, 9.0000000e-03, 2.0723542e-01, 0.0
2105, 9.5000000e-03, 2.0723542e-01, 0.0
2106, 1.0000000e-02, 2.0723542e-01, 0.0
2107, 1.0500000e-02, 2.0723542e-01, 0.0
2108, 1.1000000e-02, 2.0723542e-01, 0.0
2109, 1.1500000e-02, 2.0723542e-01, 0.0
2110, 1.2000000e-02, 2.0723542e-01, 0.0
2111, 1.2500000e-02, 2.0723542e-01, 0.0
2112, 1.3000000e-02, 2.0723542e-01, 0.0
2113, 1.3353586e-02, 2.0723542e-01, 0.0
2114, 1.3500000e-02, 2.0723542e-01, 0.0
2115, 1.4000000e-02, 2.0723542e-01, 0.0
2116, 1.4353586e-02, 2.0723542e-01, 0.0
2117, 3.0000000e-02, 2.0723542e-01, 0.0
2118, 2.9500000e-02, 2.0723542e-01, 0.0
2119, 3.0500000e-02, 2.0723542e-01, 0.0
2120, 3.1000000e-02, 2.0723542e-01, 0.0
2121, 3.1500000e-02, 2.0723542e-01, 0.0
2122, 3.2000000e-02, 2.0723542e-01, 0.0
2123, 3.2121198e-02, 2.0723542e-01, 0.0
2124, 3.2500000e-02, 2.0723542e-01, 0.0
2125, 3.3000000e-02, 2.0723542e-01, 0.0
2126, 3.3500000e-02, 2.0723542e-01, 0.0
2127, 3.4000000e-02, 2.0723542e-01, 0.0
2128, 3.4500000e-02, 2.0723542e-01, 0.0
2129, 3.4914345e-02, 2.0723542e-01, 0.0
2130, 8.0000000e-03, 2.0773542e-01, 0.0
2131, 7.5000000e-03, 2.0773542e-01, 0.0
2132, 8.5000000e-03, 2.0773542e-01, 0.0
2133, 9.0000000e-03, 2.0773542e-01, 0.0
2134, 9.5000000e-03, 2.0773542e-01, 0.0
2135, 1.0000000e-02, 2.0773542e-01, 0.0
2136, 1.0500000e-02, 2.0773542e-01, 0.0
2137, 1.1000000e-02, 2.0773542e-01, 0.0
2138, 1.1500000e-02, 2.0773542e-01, 0.0
2139, 1.2000000e-02, 2.0773542e-01, 0.0
2140, 1.2500000e-02, 2.0773542e-01, 0.0
2141, 1.3000000e-02, 2.0773542e-01, 0.0
2142, 1.3353586e-02, 2.0773542e-01, 0.0
2143, 1.3500000e-02, 2.0773542e-01, 0.0
2144, 1.4000000e-02, 2.0773542e-01, 0.0
2145, 1.4353586e-02, 2.0773542e-01, 0.0
2146, 3.0500000e-02, 2.0773542e-01, 0.0
2147, 3.0000000e-02, 2.0773542e-01, 0.0
2148, 3.1000000e-02, 2.0773542e-01, 0.0
2149, 3.1500000e-02, 2.0773542e-01, 0.0
2150, 3.2000000e-02, 2.0773542e-01, 0.0
2151, 3.2121198e-02, 2.0773542e-01, 0.0
2152, 3.2500000e-02, 2.0773542e-01, 0.0
2153, 3.3000000e-02, 2.0773542e-01, 0.0
2154, 3.3500000e-02, 2.0773542e-01, 0.0
2155, 3.4000000e-02, 2.0773542e-01, 0.0
2156, 3.4500000e-02, 2.0773542e-01, 0.0
2157, 3.4914345e-02, 2.0773542e-01, 0.0
2158, 8.0000000e-03, 2.0823542e-01, 0.0
2159, 7.5000000e-03, 2.0823542e-01, 0.0
2160, 8.5000000e-03, 2.0823542e-01, 0.0
2161, 9.0000000e-03, 2.0823542e-01, 0.0
2162, 9.5000000e-03, 2.0823542e-01, 0.0
2163, 1.0000000e-02, 2.0823542e-01, 0.0
2164, 1.0500000e-02, 2.0823542e-01, 0.0
2165, 1.1000000e-02, 2.0823542e-01, 0.0
2166, 1.1500000e-02, 2.0823542e-01, 0.0
2167, 1.2000000e-02, 2.0823542e-01, 0.0
2168, 1.2500000e-02, 2.0823542e-01, 0.0
2169, 1.3000000e-02, 2.0823542e-01, 0.0
2170, 1.3353586e-02, 2.0823542e-01, 0.0
2171, 1.3500000e-02, 2.0823542e-01, 0.0
2172, 1.4000000e-02, 2.0823542e-01, 0.0
2173, 1.4353586e-02, 2.0823542e-01, 0.0
2174, 3.1000000e-02, 2.0823542e-01, 0.0
2175, 3.0500000e-02, 2.0823542e-01, 0.0
2176, 3.1500000e-02, 2.0823542e-01, 0.0
2177, 3.2000000e-02, 2.0823542e-01, 0.0
2178, 3.2121198e-02, 2.0823542e-01, 0.0
2179, 3.2500000e-02, 2.0823542e-01, 0.0
2180, 3.3000000e-02, 2.0823542e-01, 0.0
2181, 3.3500000e-02, 2.0823542e-01, 0.0
2182, 3.4000000e-02, 2.0823542e-01, 0.0
2183, 3.4500000e-02, 2.0823542e-01, 0.0
2184, 3.4914345e-02, 2.0823542e-01, 0.0
2185, 8.0000000e-03, 2.0873542e-01, 0.0
2186, 7.5000000e-03, 2.0873542e-01, 0.0
2187, 8.5000000e-03, 2.0873542e-01, 0.0
2188, 9.0000000e-03, 2.0873542e-01, 0.0
2189, 9.5000000e-03, 2.0873542e-01, 0.0
2190, 1.0000000e-02, 2.0873542e-01, 0.0
2191, 1.0500000e-02, 2.0873542e-01, 0.0
2192, 1.1000000e-02, 2.0873542e-01, 0.0
2193, 1.1500000e-02, 2.0873542e-01, 0.0
2194, 1.2000000e-02, 2.0873542e-01, 0.0
2195, 1.2500000e-02, 2.0873542e-01, 0.0
2196, 1.3000000e-02, 2.0873542e-01, 0.0
2197, 1.3353586e-02, 2.0873542e-01, 0.0
2198, 1.3500000e-02, 2.0873542e-01, 0.0
2199, 1.4000000e-02, 2.0873542e-01, 0.0
2200, 3.2000000e-02, 2.0873542e-01, 0.0
2201, 3.1500000e-02, 2.0873542e-01, 0.0
2202, 3.2121198e-02, 2.0873542e-01, 0.0
2203, 3.2500000e-02, 2.0873542e-01, 0.0
2204, 3.3000000e-02, 2.0873542e-01, 0.0
2205, 3.3500000e-02, 2.0873542e-01, 0.0
2206, 3.4000000e-02, 2.0873542e-01, 0.0
2207, 3.4500000e-02, 2.0873542e-01, 0.0
2208, 3.4914345e-02, 2.0873542e-01, 0.0
2209, 8.0000000e-03, 2.0901341e-01, 0.0
2210, 7.5000000e-03, 2.0901341e-01, 0.0
2211, 8.5000000e-03, 2.0901341e-01, 0.0
2212, 9.0000000e-03, 2.0901341e-01, 0.0
2213, 9.5000000e-03, 2.0901341e-01, 0.0
2214, 1.0000000e-02, 2.0901341e-01, 0.0
2215, 1.0500000e-02, 2.0901341e-01, 0.0
2216, 1.1000000e-02, 2.0901341e-01, 0.0
2217, 1.1500000e-02, 2.0901341e-01, 0.0
2218, 1.2000000e-02, 2.0901341e-01, 0.0
2219, 1.2500000e-02, 2.0901341e-01, 0.0
2220, 1.3000000e-02, 2.0901341e-01, 0.0
2221, 1.3353586e-02, 2.0901341e-01, 0.0
2222, 1.3500000e-02, 2.0901341e-01, 0.0
2223, 1.4000000e-02, 2.0901341e-01, 0.0
2224, 3.2121198e-02, 2.0901341e-01, 0.0
2225, 3.2000000e-02, 2.0901341e-01, 0.0
2226, 3.2500000e-02, 2.0901341e-01, 0.0
2227, 3.3000000e-02, 2.0901341e-01, 0.0
2228, 3.3500000e-02, 2.0901341e-01, 0.0
2229, 3.4000000e-02, 2.0901341e-01, 0.0
2230, 3.4500000e-02, 2.0901341e-01, 0.0
2231, 3.4914345e-02, 2.0901341e-01, 0.0
2232, 8.0000000e-03, 2.0923542e-01, 0.0
2233, 7.5000000e-03, 2.0923542e-01, 0.0
2234, 8.5000000e-03, 2.0923542e-01, 0.0
2235, 9.0000000e-03, 2.0923542e-01, 0.0
2236, 9.5000000e-03, 2.0923542e-01, 0.0
2237, 1.0000000e-02, 2.0923542e-01, 0.0
2238, 1.0500000e-02, 2.0923542e-01, 0.0
2239, 1.1000000e-02, 2.0923542e-01, 0.0
2240, 1.1500000e-02, 2.0923542e-01, 0.0
2241, 1.2000000e-02, 2.0923542e-01, 0.0
2242, 1.2500000e-02, 2.0923542e-01, 0.0
2243, 1.3000000e-02, 2.0923542e-01, 0.0
2244, 1.3353586e-02, 2.0923542e-01, 0.0
2245, 1.3500000e-02, 2.0923542e-01, 0.0
2246, 1.4000000e-02, 2.0923542e-01, 0.0
2247, 8.0000000e-03, 2.0973542e-01, 0.0
2248, 7.5000000e-03, 2.0973542e-01, 0.0
2249, 8.5000000e-03, 2.0973542e-01, 0.0
2250, 9.0000000e-03, 2.0973542e-01, 0.0
2251, 9.5000000e-03, 2.0973542e-01, 0.0
2252, 1.0000000e-02, 2.0973542e-01, 0.0
2253, 1.0500000e-02, 2.0973542e-01, 0.0
2254, 1.1000000e-02, 2.0973542e-01, 0.0
2255, 1.1500000e-02, 2.0973542e-01, 0.0
2256, 1.2000000e-02, 2.0973542e-01, 0.0
2257, 1.2500000e-02, 2.0973542e-01, 0.0
2258, 1.3000000e-02, 2.0973542e-01, 0.0
2259, 1.3353586e-02, 2.0973542e-01, 0.0
2260, 1.3500000e-02, 2.0973542e-01, 0.0
2261, 1.4000000e-02, 2.0973542e-01, 0.0
2262, 8.0000000e-03, 2.1023542e-01, 0.0
2263, 7.5000000e-03, 2.1023542e-01, 0.0
2264, 8.5000000e-03, 2.1023542e-01, 0.0
2265, 9.0000000e-03, 2.1023542e-01, 0.0
2266, 9.5000000e-03, 2.1023542e-01, 0.0
2267, 1.0000000e-02, 2.1023542e-01, 0.0
2268, 1.0500000e-02, 2.1023542e-01, 0.0
2269, 1.1000000e-02, 2.1023542e-01, 0.0
2270, 1.1500000e-02, 2.1023542e-01, 0.0
2271, 1.2000000e-02, 2.1023542e-01, 0.0
2272, 1.2500000e-02, 2.1023542e-01, 0.0
2273, 1.3000000e-02, 2.1023542e-01, 0.0
2274, 1.3353586e-02, 2.1023542e-01, 0.0
2275, 1.3500000e-02, 2.1023542e-01, 0.0
2276, 1.4000000e-02, 2.1023542e-01, 0.0
2277, 8.0000000e-03, 2.1073542e-01, 0.0
2278, 7.5000000e-03, 2.1073542e-01, 0.0
2279, 8.5000000e-03, 2.1073542e-01, 0.0
2280, 9.0000000e-03, 2.1073542e-01, 0.0
2281, 9.5000000e-03, 2.1073542e-01, 0.0
2282, 1.0000000e-02, 2.1073542e-01, 0.0
2283, 1.0500000e-02, 2.1073542e-01, 0.0
2284, 1.1000000e-02, 2.1073542e-01, 0.0
2285, 1.1500000e-02, 2.1073542e-01, 0.0
2286, 1.2000000e-02, 2.1073542e-01, 0.0
2287, 1.2500000e-02, 2.1073542e-01, 0.0
2288, 1.3000000e-02, 2.1073542e-01, 0.0
2289, 1.3353586e-02, 2.1073542e-01, 0.0
2290, 1.3500000e-02, 2.1073542e-01, 0.0
2291, 1.4000000e-02, 2.1073542e-01, 0.0
2292, 8.0000000e-03, 2.1123542e-01, 0.0
2293, 7.5000000e-03, 2.1123542e-01, 0.0
2294, 8.5000000e-03, 2.1123542e-01, 0.0
2295, 9.0000000e-03, 2.1123542e-01, 0.0
2296, 9.5000000e-03, 2.1123542e-01, 0.0
2297, 1.0000000e-02, 2.1123542e-01, 0.0
2298, 1.0500000e-02, 2.1123542e-01, 0.0
2299, 1.1000000e-02, 2.1123542e-01, 0.0
2300, 1.1500000e-02, 2.1123542e-01, 0.0
2301, 1.2000000e-02, 2.1123542e-01, 0.0
2302, 1.2500000e-02, 2.1123542e-01, 0.0
2303, 1.3000000e-02, 2.1123542e-01, 0.0
2304, 1.3353586e-02, 2.1123542e-01, 0.0
2305, 1.3500000e-02, 2.1123542e-01, 0.0
2306, 1.4000000e-02, 2.1123542e-01, 0.0
2307, 8.0000000e-03, 2.1173542e-01, 0.0
2308, 7.5000000e-03, 2.1173542e-01, 0.0
2309, 8.5000000e-03, 2.1173542e-01, 0.0
2310, 9.0000000e-03, 2.1173542e-01, 0.0
2311, 9.5000000e-03, 2.1173542e-01, 0.0
2312, 1.0000000e-02, 2.1173542e-01, 0.0
2313, 1.0500000e-02, 2.1173542e-01, 0.0
2314, 1.1000000e-02, 2.1173542e-01, 0.0
2315, 1.1500000e-02, 2.1173542e-01, 0.0
2316, 1.2000000e-02, 2.1173542e-01, 0.0
2317, 1.2500000e-02, 2.1173542e-01, 0.0
2318, 1.3000000e-02, 2.1173542e-01, 0.0
2319, 1.3353586e-02, 2.1173542e-01, 0.0
2320, 1.3500000e-02, 2.1173542e-01, 0.0
2321, 1.4000000e-02, 2.1173542e-01, 0.0
2322, 8.0000000e-03, 2.1223542e-01, 0.0
2323, 7.5000000e-03, 2.1223542e-01, 0.0
2324, 8.5000000e-03, 2.1223542e-01, 0.0
2325, 9.0000000e-03, 2.1223542e-01, 0.0
2326, 9.5000000e-03, 2.1223542e-01, 0.0
2327, 1.0000000e-02, 2.1223542e-01, 0.0
2328, 1.0500000e-02, 2.1223542e-01, 0.0
2329, 1.1000000e-02, 2.1223542e-01, 0.0
2330, 1.1500000e-02, 2.1223542e-01, 0.0
2331, 1.2000000e-02, 2.1223542e-01, 0.0
2332, 1.2500000e-02, 2.1223542e-01, 0.0
2333, 1.3000000e-02, 2.1223542e-01, 0.0
2334, 1.3353586e-02, 2.1223542e-01, 0.0
2335, 1.3500000e-02, 2.1223542e-01, 0.0
2336, 1.4000000e-02, 2.1223542e-01, 0.0
2337, 8.0000000e-03, 2.1273542e-01, 0.0
2338, 7.5000000e-03, 2.1273542e-01, 0.0
2339, 8.5000000e-03, 2.1273542e-01, 0.0
2340, 9.0000000e-03, 2.1273542e-01, 0.0
2341, 9.5000000e-03, 2.1273542e-01, 0.0
2342, 1.0000000e-02, 2.1273542e-01, 0.0
2343, 1.0500000e-02, 2.1273542e-01, 0.0
2344, 1.1000000e-02, 2.1273542e-01, 0.0
2345, 1.1500000e-02, 2.1273542e-01, 0.0
2346, 1.2000000e-02, 2.1273542e-01, 0.0
2347, 1.2500000e-02, 2.1273542e-01, 0.0
2348, 1.3000000e-02, 2.1273542e-01, 0.0
2349, 1.3353586e-02, 2.1273542e-01, 0.0
2350, 1.3500000e-02, 2.1273542e-01, 0.0
2351, 1.4000000e-02, 2.1273542e-01, 0.0
2352, 8.0000000e-03, 2.1323542e-01, 0.0
2353, 7.5000000e-03, 2.1323542e-01, 0.0
2354, 8.5000000e-03, 2.1323542e-01, 0.0
2355, 9.0000000e-03, 2.1323542e-01, 0.0
2356, 9.5000000e-03, 2.1323542e-01, 0.0
2357, 1.0000000e-02, 2.1323542e-01, 0.0
2358, 1.0500000e-02, 2.1323542e-01, 0.0
2359, 1.1000000e-02, 2.1323542e-01, 0.0
2360, 1.1500000e-02, 2.1323542e-01, 0.0
2361, 1.2000000e-02, 2.1323542e-01, 0.0
2362, 1.2500000e-02, 2.1323542e-01, 0.0
2363, 1.3000000e-02, 2.1323542e-01, 0.0
2364, 1.3353586e-02, 2.1323542e-01, 0.0
2365, 1.3500000e-02, 2.1323542e-01, 0.0
2366, 1.4000000e-02, 2.1323542e-01, 0.0
2367, 8.0000000e-03, 2.1373542e-01, 0.0
2368, 7.5000000e-03, 2.1373542e-01, 0.0
2369, 8.5000000e-03, 2.1373542e-01, 0.0
2370, 9.0000000e-03, 2.1373542e-01, 0.0
2371, 9.5000000e-03, 2.1373542e-01, 0.0
2372, 1.0000000e-02, 2.1373542e-01, 0.0
2373, 1.0500000e-02, 2.1373542e-01, 0.0
2374, 1.1000000e-02, 2.1373542e-01, 0.0
2375, 1.1500000e-02, 2.1373542e-01, 0.0
2376, 1.2000000e-02, 2.1373542e-01, 0.0
2377, 1.2500000e-02, 2.1373542e-01, 0.0
2378, 1.3000000e-02, 2.1373542e-01, 0.0
2379, 1.3353586e-02, 2.1373542e-01, 0.0
2380, 1.3500000e-02, 2.1373542e-01, 0.0
2381, 1.4000000e-02, 2.1373542e-01, 0.0
2382, 8.0000000e-03, 2.1423542e-01, 0.0
2383, 7.5000000e-03, 2.1423542e-01, 0.0
2384, 8.5000000e-03, 2.1423542e-01, 0.0
2385, 9.0000000e-03, 2.1423542e-01, 0.0
2386, 9.5000000e-03, 2.1423542e-01, 0.0
2387, 1.0000000e-02, 2.1423542e-01, 0.0
2388, 1.0500000e-02, 2.1423542e-01, 0.0
2389, 1.1000000e-02, 2.1423542e-01, 0.0
2390, 1.1500000e-02, 2.1423542e-01, 0.0
2391, 1.2000000e-02, 2.1423542e-01, 0.0
2392, 1.2500000e-02, 2.1423542e-01, 0.0
2393, 1.3000000e-02, 2.1423542e-01, 0.0
2394, 1.3353586e-02, 2.1423542e-01, 0.0
2395, 1.3500000e-02, 2.1423542e-01, 0.0
2396, 8.0000000e-03, 2.1473542e-01, 0.0
2397, 7.5000000e-03, 2.1473542e-01, 0.0
2398, 8.5000000e-03, 2.1473542e-01, 0.0
2399, 9.0000000e-03, 2.1473542e-01, 0.0
2400, 9.5000000e-03, 2.1473542e-01, 0.0
2401, 1.0000000e-02, 2.1473542e-01, 0.0
2402, 1.0500000e-02, 2.1473542e-01, 0.0
2403, 1.1000000e-02, 2.1473542e-01, 0.0
2404, 1.1500000e-02, 2.1473542e-01, 0.0
2405, 1.2000000e-02, 2.1473542e-01, 0.0
2406, 1.2500000e-02, 2.1473542e-01, 0.0
2407, 1.3000000e-02, 2.1473542e-01, 0.0
2408, 1.3353586e-02, 2.1473542e-01, 0.0
2409, 1.3500000e-02, 2.1473542e-01, 0.0
2410, 8.0000000e-03, 2.1523542e-01, 0.0
2411, 7.5000000e-03, 2.1523542e-01, 0.0
2412, 8.5000000e-03, 2.1523542e-01, 0.0
2413, 9.0000000e-03, 2.1523542e-01, 0.0
2414, 9.5000000e-03, 2.1523542e-01, 0.0
2415, 1.0000000e-02, 2.1523542e-01, 0.0
2416, 1.0500000e-02, 2.1523542e-01, 0.0
2417, 1.1000000e-02, 2.1523542e-01, 0.0
2418, 1.1500000e-02, 2.1523542e-01, 0.0
2419, 1.2000000e-02, 2.1523542e-01, 0.0
2420, 1.2500000e-02, 2.1523542e-01, 0.0
2421, 1.3000000e-02, 2.1523542e-01, 0.0
2422, 1.3353586e-02, 2.1523542e-01, 0.0
2423, 1.3500000e-02, 2.1523542e-01, 0.0
2424, 8.0000000e-03, 2.1573542e-01, 0.0
2425, 7.5000000e-03, 2.1573542e-01, 0.0
2426, 8.5000000e-03, 2.1573542e-01, 0.0
2427, 9.0000000e-03, 2.1573542e-01, 0.0
2428, 9.5000000e-03, 2.1573542e-01, 0.0
2429, 1.0000000e-02, 2.1573542e-01, 0.0
2430, 1.0500000e-02, 2.1573542e-01, 0.0
2431, 1.1000000e-02, 2.1573542e-01, 0.0
2432, 1.1500000e-02, 2.1573542e-01, 0.0
2433, 1.2000000e-02, 2.1573542e-01, 0.0
2434, 1.2500000e-02, 2.1573542e-01, 0.0
2435, 1.3000000e-02, 2.1573542e-01, 0.0
2436, 1.3353586e-02, 2.1573542e-01, 0.0
2437, 1.3500000e-02, 2.1573542e-01, 0.0
2438, 8.0000000e-03, 2.1623542e-01, 0.0
2439, 7.5000000e-03, 2.1623542e-01, 0.0
2440, 8.5000000e-03, 2.1623542e-01, 0.0
2441, 9.0000000e-03, 2.1623542e-01, 0.0
2442, 9.5000000e-03, 2.1623542e-01, 0.0
2443, 1.0000000e-02, 2.1623542e-01, 0.0
2444, 1.0500000e-02, 2.1623542e-01, 0.0
2445, 1.1000000e-02, 2.1623542e-01, 0.0
2446, 1.1500000e-02, 2.1623542e-01, 0.0
2447, 1.2000000e-02, 2.1623542e-01, 0.0
2448, 1.2500000e-02, 2.1623542e-01, 0.0
2449, 1.3000000e-02, 2.1623542e-01, 0.0
2450, 1.3353586e-02, 2.1623542e-01, 0.0
2451, 1.3500000e-02, 2.1623542e-01, 0.0
2452, 8.0000000e-03, 2.1673542e-01, 0.0
2453, 7.5000000e-03, 2.1673542e-01, 0.0
2454, 8.5000000e-03, 2.1673542e-01, 0.0
2455, 9.0000000e-03, 2.1673542e-01, 0.0
2456, 9.5000000e-03, 2.1673542e-01, 0.0
2457, 1.0000000e-02, 2.1673542e-01, 0.0
2458, 1.0500000e-02, 2.1673542e-01, 0.0
2459, 1.1000000e-02, 2.1673542e-01, 0.0
2460, 1.1500000e-02, 2.1673542e-01, 0.0
2461, 1.2000000e-02, 2.1673542e-01, 0.0
2462, 1.2500000e-02, 2.1673542e-01, 0.0
2463, 1.3000000e-02, 2.1673542e-01, 0.0
2464, 1.3353586e-02, 2.1673542e-01, 0.0
2465, 1.3500000e-02, 2.1673542e-01, 0.0
2466, 8.0000000e-03, 2.1723542e-01, 0.0
2467, 7.5000000e-03, 2.1723542e-01, 0.0
2468, 8.5000000e-03, 2.1723542e-01, 0.0
2469, 9.0000000e-03, 2.1723542e-01, 0.0
2470, 9.5000000e-03, 2.1723542e-01, 0.0
2471, 1.0000000e-02, 2.1723542e-01, 0.0
2472, 1.0500000e-02, 2.1723542e-01, 0.0
2473, 1.1000000e-02, 2.1723542e-01, 0.0
2474, 1.1500000e-02, 2.1723542e-01, 0.0
2475, 1.2000000e-02, 2.1723542e-01, 0.0
2476, 1.2500000e-02, 2.1723542e-01, 0.0
2477, 1.3000000e-02, 2.1723542e-01, 0.0
2478, 1.3353586e-02, 2.1723542e-01, 0.0
2479, 1.3500000e-02, 2.1723542e-01, 0.0
2480, 8.0000000e-03, 2.1773542e-01, 0.0
2481, 7.5000000e-03, 2.1773542e-01, 0.0
2482, 8.5000000e-03, 2.1773542e-01, 0.0
2483, 9.0000000e-03, 2.1773542e-01, 0.0
2484, 9.5000000e-03, 2.1773542e-01, 0.0
2485, 1.0000000e-02, 2.1773542e-01, 0.0
2486, 1.0500000e-02, 2.1773542e-01, 0.0
2487, 1.1000000e-02, 2.1773542e-01, 0.0
2488, 1.1500000e-02, 2.1773542e-01, 0.0
2489, 1.2000000e-02, 2.1773542e-01, 0.0
2490, 1.2500000e-02, 2.1773542e-01, 0.0
2491, 1.3000000e-02, 2.1773542e-01, 0.0
2492, 1.3353586e-02, 2.1773542e-01, 0.0
2493, 1.3500000e-02, 2.1773542e-01, 0.0
2494, 8.0000000e-03, 2.1823542e-01, 0.0
2495, 7.5000000e-03, 2.1823542e-01, 0.0
2496, 8.5000000e-03, 2.1823542e-01, 0.0
2497, 9.0000000e-03, 2.1823542e-01, 0.0
2498, 9.5000000e-03, 2.1823542e-01, 0.0
2499, 1.0000000e-02, 2.1823542e-01, 0.0
2500, 1.0500000e-02, 2.1823542e-01, 0.0
2501, 1.1000000e-02, 2.1823542e-01, 0.0
2502, 1.1500000e-02, 2.1823542e-01, 0.0
2503, 1.2000000e-02, 2.1823542e-01, 0.0
2504, 1.2500000e-02, 2.1823542e-01, 0.0
2505, 1.3000000e-02, 2.1823542e-01, 0.0
2506, 1.3353586e-02, 2.1823542e-01, 0.0
2507, 1.3500000e-02, 2.1823542e-01, 0.0
2508, 8.0000000e-03, 2.1873542e-01, 0.0
2509, 7.5000000e-03, 2.1873542e-01, 0.0
2510, 8.5000000e-03, 2.1873542e-01, 0.0
2511, 9.0000000e-03, 2.1873542e-01, 0.0
2512, 9.5000000e-03, 2.1873542e-01, 0.0
2513, 1.0000000e-02, 2.1873542e-01, 0.0
2514, 1.0500000e-02, 2.1873542e-01, 0.0
2515, 1.1000000e-02, 2.1873542e-01, 0.0
2516, 1.1500000e-02, 2.1873542e-01, 0.0
2517, 1.2000000e-02, 2.1873542e-01, 0.0
2518, 1.2500000e-02, 2.1873542e-01, 0.0
2519, 1.3000000e-02, 2.1873542e-01, 0.0
2520, 1.3353586e-02, 2.1873542e-01, 0.0
2521, 8.0000000e-03, 2.1894892e-01, 0.0
2522, 7.5000000e-03, 2.1894892e-01, 0.0
2523, 8.5000000e-03, 2.1894892e-01, 0.0
2524, 9.0000000e-03, 2.1894892e-01, 0.0
2525, 9.5000000e-03, 2.1894892e-01, 0.0
2526, 1.0000000e-02, 2.1894892e-01, 0.0
2527, 1.0500000e-02, 2.1894892e-01, 0.0
2528, 1.1000000e-02, 2.1894892e-01, 0.0
2529, 1.1500000e-02, 2.1894892e-01, 0.0
2530, 1.2000000e-02, 2.1894892e-01, 0.0
2531, 1.2500000e-02, 2.1894892e-01, 0.0
2532, 1.3000000e-02, 2.1894892e-01, 0.0
2533, 1.3353586e-02, 2.1894892e-01, 0.0
*ELEMENT, TYPE=CAX4, ELSET=DISC
1, 1, 2, 3, 4
2, 2, 5, 6, 3
3, 5, 7, 8, 6
4, 7, 9, 10, 8
5, 9, 11, 12, 10
6, 11, 13, 14, 12
7, 13, 15, 16, 14
8, 15, 17, 18, 16
9, 17, 19, 20, 18
10, 19, 21, 22, 20
11, 21, 23, 24, 22
12, 23, 25, 26, 24
13, 4, 3, 27, 28
14, 3, 6, 29, 27
15, 6, 8, 30, 29
16, 8, 10, 31, 30
17, 10, 12, 32, 31
18, 12, 14, 33, 32
19, 14, 16, 34, 33
20, 16, 18, 35, 34
21, 18, 20, 36, 35
22, 20, 22, 37, 36
23, 22, 24, 38, 37
24, 24, 26, 39, 38
25, 28, 27, 40, 41
26, 27, 29, 42, 40
27, 29, 30, 43, 42
28, 30, 31, 44, 43
29, 31, 32, 45, 44
30, 32, 33, 46, 45
31, 33, 34, 47, 46
32, 34, 35, 48, 47
33, 35, 36, 49, 48
34, 36, 37, 50, 49
35, 37, 38, 51, 50
36, 38, 39, 52, 51
37, 39, 53, 54, 52
38, 41, 40, 55, 56
39, 40, 42, 57, 55
40, 42, 43, 58, 57
41, 43, 44, 59, 58
42, 44, 45, 60, 59
43, 45, 46, 61, 60
44, 46, 47, 62, 61
45, 47, 48, 63, 62
46, 48, 49, 64, 63
47, 49, 50, 65, 64
48, 50, 51, 66, 65
49, 51, 52, 67, 66
50, 52, 54, 68, 67
51, 56, 55, 69, 70
52, 55, 57, 71, 69
53, 57, 58, 72, 71
54, 58, 59, 73, 72
55, 59, 60, 74, 73
56, 60, 61, 75, 74
57, 61, 62, 76, 75
58, 62, 63, 77, 76
59, 63, 64, 78, 77
60, 64, 65, 79, 78
61, 65, 66, 80, 79
62, 66, 67, 81, 80
63, 67, 68, 82, 81
64, 70, 69, 83, 84
65, 69, 71, 85, 83
66, 71, 72, 86, 85
67, 72, 73, 87, 86
68, 73, 74, 88, 87
69, 74, 75, 89, 88
70, 75, 76, 90, 89
71, 76, 77, 91, 90
72, 77, 78, 92, 91
73, 78, 79, 93, 92
74, 79, 80, 94, 93
75, 80, 81, 95, 94
76, 81, 82, 96, 95
77, 84, 83, 97, 98
78, 83, 85, 99, 97
79, 85, 86, 100, 99
80, 86, 87, 101, 100
81, 87, 88, 102, 101
82, 88, 89, 103, 102
83, 89, 90, 104, 103
84, 90, 91, 105, 104
85, 91, 92, 106, 105
86, 92, 93, 107, 106
87, 93, 94, 108, 107
88, 94, 95, 109, 108
89, 95, 96, 110, 109
90, 98, 97, 111, 112
91, 97, 99, 113, 111
92, 99, 100, 114, 113
93, 100, 101, 115, 114
94, 101, 102, 116, 115
95, 102, 103, 117, 116
96, 103, 104, 118, 117
97, 104, 105, 119, 118
98, 105, 106, 120, 119
99, 106, 107, 121, 120
100, 107, 108, 122, 121
101, 108, 109, 123, 122
102, 109, 110, 124, 123
103, 112, 111, 125, 126
104, 111, 113, 127, 125
105, 113, 114, 128, 127
106, 114, 115, 129, 128
107, 115, 116, 130, 129
108, 116, 117, 131, 130
109, 117, 118, 132, 131
110, 118, 119, 133, 132
111, 119, 120, 134, 133
112, 120, 121, 135, 134
113, 121, 122, 136, 135
114, 122, 123, 137, 136
115, 123, 124, 138, 137
116, 126, 125, 139, 140
117, 125, 127, 141, 139
118, 127, 128, 142, 141
119, 128, 129, 143, 142
120, 129, 130, 144, 143
121, 130, 131, 145, 144
122, 131, 132, 146, 145
123, 132, 133, 147, 146
124, 133, 134, 148, 147
125, 134, 135, 149, 148
126, 135, 136, 150, 149
127, 136, 137, 151, 150
128, 137, 138, 152, 151
129, 140, 139, 153, 154
130, 139, 141, 155, 153
131, 141, 142, 156, 155
132, 142, 143, 157, 156
133, 143, 144, 158, 157
134, 144, 145, 159, 158
135, 145, 146, 160, 159
136, 146, 147, 161, 160
137, 147, 148, 162, 161
138, 148, 149, 163, 162
139, 149, 150, 164, 163
140, 150, 151, 165, 164
141, 151, 152, 166, 165
142, 152, 167, 168, 166
143, 154, 153, 169, 170
144, 153, 155, 171, 169
145, 155, 156, 172, 171
146, 156, 157, 173, 172
147, 157, 158, 174, 173
148, 158, 159, 175, 174
149, 159, 160, 176, 175
150, 160, 161, 177, 176
151, 161, 162, 178, 177
152, 162, 163, 179, 178
153, 163, 164, 180, 179
154, 164, 165, 181, 180
155, 165, 166, 182, 181
156, 166, 168, 183, 182
157, 170, 169, 184, 185
158, 169, 171, 186, 184
159, 171, 172, 187, 186
160, 172, 173, 188, 187
161, 173, 174, 189, 188
162, 174, 175, 190, 189
163, 175, 176, 191, 190
164, 176, 177, 192, 191
165, 177, 178, 193, 192
166, 178, 179, 194, 193
167, 179, 180, 195, 194
168, 180, 181, 196, 195
169, 181, 182, 197, 196
170, 182, 183, 198, 197
171, 185, 184, 199, 200
172, 184, 186, 201, 199
173, 186, 187, 202, 201
174, 187, 188, 203, 202
175, 188, 189, 204, 203
176, 189, 190, 205, 204
177, 190, 191, 206, 205
178, 191, 192, 207, 206
179, 192, 193, 208, 207
180, 193, 194, 209, 208
181, 194, 195, 210, 209
182, 195, 196, 211, 210
183, 196, 197, 212, 211
184, 197, 198, 213, 212
185, 200, 199, 214, 215
186, 199, 201, 216, 214
187, 201, 202, 217, 216
188, 202, 203, 218, 217
189, 203, 204, 219, 218
190, 204, 205, 220, 219
191, 205, 206, 221, 220
192, 206, 207, 222, 221
193, 207, 208, 223, 222
194, 208, 209, 224, 223
195, 209, 210, 225, 224
196, 210, 211, 226, 225
197, 211, 212, 227, 226
198, 212, 213, 228, 227
199, 215, 214, 229, 230
200, 214, 216, 231, 229
201, 216, 217, 232, 231
202, 217, 218, 233, 232
203, 218, 219, 234, 233
204, 219, 220, 235, 234
205, 220, 221, 236, 235
206, 221, 222, 237, 236
207, 222, 223, 238, 237
208, 223, 224, 239, 238
209, 224, 225, 240, 239
210, 225, 226, 241, 240
211, 226, 227, 242, 241
212, 227, 228, 243, 242
213, 230, 229, 244, 245
214, 229, 231, 246, 244
215, 231, 232, 247, 246
216, 232, 233, 248, 247
217, 233, 234, 249, 248
218, 234, 235, 250, 249
219, 235, 236, 251, 250
220, 236, 237, 252, 251
221, 237, 238, 253, 252
222, 238, 239, 254, 253
223, 239, 240, 255, 254
224, 240, 241, 256, 255
225, 241, 242, 257, 256
226, 242, 243, 258, 257
227, 245, 244, 259, 260
228, 244, 246, 261, 259
229, 246, 247, 262, 261
230, 247, 248, 263, 262
231, 248, 249, 264, 263
232, 249, 250, 265, 264
233, 250, 251, 266, 265
234, 251, 252, 267, 266
235, 252, 253, 268, 267
236, 253, 254, 269, 268
237, 254, 255, 270, 269
238, 255, 256, 271, 270
239, 256, 257, 272, 271
240, 257, 258, 273, 272
241, 260, 259, 274, 275
242, 259, 261, 276, 274
243, 261, 262, 277, 276
244, 262, 263, 278, 277
245, 263, 264, 279, 278
246, 264, 265, 280, 279
247, 265, 266, 281, 280
248, 266, 267, 282, 281
249, 267, 268, 283, 282
250, 268, 269, 284, 283
251, 269, 270, 285, 284
252, 270, 271, 286, 285
253, 271, 272, 287, 286
254, 272, 273, 288, 287
255, 275, 274, 289, 290
256, 274, 276, 291, 289
257, 276, 277, 292, 291
258, 277, 278, 293, 292
259, 278, 279, 294, 293
260, 279, 280, 295, 294
261, 280, 281, 296, 295
262, 281, 282, 297, 296
263, 282, 283, 298, 297
264, 283, 284, 299, 298
265, 284, 285, 300, 299
266, 285, 286, 301, 300
267, 286, 287, 302, 301
268, 287, 288, 303, 302
269, 290, 289, 304, 305
270, 289, 291, 306, 304
271, 291, 292, 307, 306
272, 292, 293, 308, 307
273, 293, 294, 309, 308
274, 294, 295, 310, 309
275, 295, 296, 311, 310
276, 296, 297, 312, 311
277, 297, 298, 313, 312
278, 298, 299, 314, 313
279, 299, 300, 315, 314
280, 300, 301, 316, 315
281, 301, 302, 317, 316
282, 302, 303, 318, 317
283, 319, 320, 321, 322
284, 320, 323, 324, 321
285, 323, 325, 326, 324
286, 325, 327, 328, 326
287, 327, 329, 330, 328
288, 329, 331, 332, 330
289, 305, 304, 333, 334
290, 304, 306, 335, 333
291, 306, 307, 336, 335
292, 307, 308, 337, 336
293, 308, 309, 338, 337
294, 309, 310, 339, 338
295, 310, 311, 340, 339
296, 311, 312, 341, 340
297, 312, 313, 342, 341
298, 313, 314, 343, 342
299, 314, 315, 344, 343
300, 315, 316, 345, 344
301, 316, 317, 346, 345
302, 317, 318, 347, 346
303, 348, 349, 350, 351
304, 349, 322, 352, 350
305, 322, 321, 353, 352
306, 321, 324, 354, 353
307, 324, 326, 355, 354
308, 326, 328, 356, 355
309, 328, 330, 357, 356
310, 330, 332, 358, 357
311, 334, 333, 359, 360
312, 333, 335, 361, 359
313, 335, 336, 362, 361
314, 336, 337, 363, 362
315, 337, 338, 364, 363
316, 338, 339, 365, 364
317, 339, 340, 366, 365
318, 340, 341, 367, 366
319, 341, 342, 368, 367
320, 342, 343, 369, 368
321, 343, 344, 370, 369
322, 344, 345, 371, 370
323, 345, 346, 372, 371
324, 346, 347, 373, 372
325, 347, 374, 375, 373
326, 376, 351, 377, 378
327, 351, 350, 379, 377
328, 350, 352, 380, 379
329, 352, 353, 381, 380
330, 353, 354, 382, 381
331, 354, 355, 383, 382
332, 355, 356, 384, 383
333, 356, 357, 385, 384
334, 357, 358, 386, 385
335, 360, 359, 387, 388
336, 359, 361, 389, 387
337, 361, 362, 390, 389
338, 362, 363, 391, 390
339, 363, 364, 392, 391
340, 364, 365, 393, 392
341, 365, 366, 394, 393
342, 366, 367, 395, 394
343, 367, 368, 396, 395
344, 368, 369, 397, 396
345, 369, 370, 398, 397
346, 370, 371, 399, 398
347, 371, 372, 400, 399
348, 372, 373, 401, 400
349, 373, 375, 402, 401
350, 403, 378, 404, 405
351, 378, 377, 406, 404
352, 377, 379, 407, 406
353, 379, 380, 408, 407
354, 380, 381, 409, 408
355, 381, 382, 410, 409
356, 382, 383, 411, 410
357, 383, 384, 412, 411
358, 384, 385, 413, 412
359, 385, 386, 414, 413
360, 388, 387, 415, 416
361, 387, 389, 417, 415
362, 389, 390, 418, 417
363, 390, 391, 419, 418
364, 391, 392, 420, 419
365, 392, 393, 421, 420
366, 393, 394, 422, 421
367, 394, 395, 423, 422
368, 395, 396, 424, 423
369, 396, 397, 425, 424
370, 397, 398, 426, 425
371, 398, 399, 427, 426
372, 399, 400, 428, 427
373, 400, 401, 429, 428
374, 401, 402, 430, 429
375, 431, 432, 433, 434
376, 432, 405, 435, 433
377, 405, 404, 436, 435
378, 404, 406, 437, 436
379, 406, 407, 438, 437
380, 407, 408, 439, 438
381, 408, 409, 440, 439
382, 409, 410, 441, 440
383, 410, 411, 442, 441
384, 411, 412, 443, 442
385, 412, 413, 444, 443
386, 413, 414, 445, 444
387, 416, 415, 446, 447
388, 415, 417, 448, 446
389, 417, 418, 449, 448
390, 418, 419, 450, 449
391, 419, 420, 451, 450
392, 420, 421, 452, 451
393, 421, 422, 453, 452
394, 422, 423, 454, 453
395, 423, 424, 455, 454
396, 424, 425, 456, 455
397, 425, 426, 457, 456
398, 426, 427, 458, 457
399, 427, 428, 459, 458
400, 428, 429, 460, 459
401, 429, 430, 461, 460
402, 462, 434, 463, 464
403, 434, 433, 465, 463
404, 433, 435, 466, 465
405, 435, 436, 467, 466
406, 436, 437, 468, 467
407, 437, 438, 469, 468
408, 438, 439, 470, 469
409, 439, 440, 471, 470
410, 440, 441, 472, 471
411, 441, 442, 473, 472
412, 442, 443, 474, 473
413, 443, 444, 475, 474
414, 444, 445, 476, 475
415, 447, 446, 477, 478
416, 446, 448, 479, 477
417, 448, 449, 480, 479
418, 449, 450, 481, 480
419, 450, 451, 482, 481
420, 451, 452, 483, 482
421, 452, 453, 484, 483
422, 453, 454, 485, 484
423, 454, 455, 486, 485
424, 455, 456, 487, 486
425, 456, 457, 488, 487
426, 457, 458, 489, 488
427, 458, 459, 490, 489
428, 459, 460, 491, 490
429, 460, 461, 492, 491
430, 493, 464, 494, 495
431, 464, 463, 496, 494
432, 463, 465, 497, 496
433, 465, 466, 498, 497
434, 466, 467, 499, 498
435, 467, 468, 500, 499
436, 468, 469, 501, 500
437, 469, 470, 502, 501
438, 470, 471, 503, 502
439, 471, 472, 504, 503
440, 472, 473, 505, 504
441, 473, 474, 506, 505
442, 474, 475, 507, 506
443, 475, 476, 508, 507
444, 478, 477, 509, 510
445, 477, 479, 511, 509
446, 479, 480, 512, 511
447, 480, 481, 513, 512
448, 481, 482, 514, 513
449, 482, 483, 515, 514
450, 483, 484, 516, 515
451, 484, 485, 517, 516
452, 485, 486, 518, 517
453, 486, 487, 519, 518
454, 487, 488, 520, 519
455, 488, 489, 521, 520
456, 489, 490, 522, 521
457, 490, 491, 523, 522
458, 491, 492, 524, 523
459, 492, 525, 526, 524
460, 525, 527, 528, 526
461, 527, 529, 530, 528
462, 529, 531, 532, 530
463, 531, 533, 534, 532
464, 533, 535, 536, 534
465, 535, 537, 538, 536
466, 537, 539, 540, 538
467, 539, 541, 542, 540
468, 541, 543, 544, 542
469, 543, 545, 546, 544
470, 545, 547, 548, 546
471, 547, 549, 550, 548
472, 549, 551, 552, 550
473, 551, 553, 554, 552
474, 553, 555, 556, 554
475, 555, 557, 558, 556
476, 557, 559, 560, 558
477, 559, 561, 562, 560
478, 561, 563, 564, 562
479, 563, 565, 566, 564
480, 565, 567, 568, 566
481, 567, 569, 570, 568
482, 569, 571, 572, 570
483, 571, 573, 574, 572
484, 573, 575, 576, 574
485, 575, 577, 578, 576
486, 577, 579, 580, 578
487, 579, 581, 582, 580
488, 581, 495, 583, 582
489, 495, 494, 584, 583
490, 494, 496, 585, 584
491, 496, 497, 586, 585
492, 497, 498, 587, 586
493, 498, 499, 588, 587
494, 499, 500, 589, 588
495, 500, 501, 590, 589
496, 501, 502, 591, 590
497, 502, 503, 592, 591
498, 503, 504, 593, 592
499, 504, 505, 594, 593
500, 505, 506, 595, 594
501, 506, 507, 596, 595
502, 507, 508, 597, 596
503, 510, 509, 598, 599
504, 509, 511, 600, 598
505, 511, 512, 601, 600
506, 512, 513, 602, 601
507, 513, 514, 603, 602
508, 514, 515, 604, 603
509, 515, 516, 605, 604
510, 516, 517, 606, 605
511, 517, 518, 607, 606
512, 518, 519, 608, 607
513, 519, 520, 609, 608
514, 520, 521, 610, 609
515, 521, 522, 611, 610
516, 522, 523, 612, 611
517, 523, 524, 613, 612
518, 524, 526, 614, 613
519, 526, 528, 615, 614
520, 528, 530, 616, 615
521, 530, 532, 617, 616
522, 532, 534, 618, 617
523, 534, 536, 619, 618
524, 536, 538, 620, 619
525, 538, 540, 621, 620
526, 540, 542, 622, 621
527, 542, 544, 623, 622
528, 544, 546, 624, 623
529, 546, 548, 625, 624
530, 548, 550, 626, 625
531, 550, 552, 627, 626
532, 552, 554, 628, 627
533, 554, 556, 629, 628
534, 556, 558, 630, 629
535, 558, 560, 631, 630
536, 560, 562, 632, 631
537, 562, 564, 633, 632
538, 564, 566, 634, 633
539, 566, 568, 635, 634
540, 568, 570, 636, 635
541, 570, 572, 637, 636
542, 572, 574, 638, 637
543, 574, 576, 639, 638
544, 576, 578, 640, 639
545, 578, 580, 641, 640
546, 580, 582, 642, 641
547, 582, 583, 643, 642
548, 583, 584, 644, 643
549, 584, 585, 645, 644
550, 585, 586, 646, 645
551, 586, 587, 647, 646
552, 587, 588, 648, 647
553, 588, 589, 649, 648
554, 589, 590, 650, 649
555, 590, 591, 651, 650
556, 591, 592, 652, 651
557, 592, 593, 653, 652
558, 593, 594, 654, 653
559, 594, 595, 655, 654
560, 595, 596, 656, 655
561, 596, 597, 657, 656
562, 599, 598, 658, 659
563, 598, 600, 660, 658
564, 600, 601, 661, 660
565, 601, 602, 662, 661
566, 602, 603, 663, 662
567, 603, 604, 664, 663
568, 604, 605, 665, 664
569, 605, 606, 666, 665
570, 606, 607, 667, 666
571, 607, 608, 668, 667
572, 608, 609, 669, 668
573, 609, 610, 670, 669
574, 610, 611, 671, 670
575, 611, 612, 672, 671
576, 612, 613, 673, 672
577, 613, 614, 674, 673
578, 614, 615, 675, 674
579, 615, 616, 676, 675
580, 616, 617, 677, 676
581, 617, 618, 678, 677
582, 618, 619, 679, 678
583, 619, 620, 680, 679
584, 620, 621, 681, 680
585, 621, 622, 682, 681
586, 622, 623, 683, 682
587, 623, 624, 684, 683
588, 624, 625, 685, 684
589, 625, 626, 686, 685
590, 626, 627, 687, 686
591, 627, 628, 688, 687
592, 628, 629, 689, 688
593, 629, 630, 690, 689
594, 630, 631, 691, 690
595, 631, 632, 692, 691
596, 632, 633, 693, 692
597, 633, 634, 694, 693
598, 634, 635, 695, 694
599, 635, 636, 696, 695
600, 636, 637, 697, 696
601, 637, 638, 698, 697
602, 638, 639, 699, 698
603, 639, 640, 700, 699
604, 640, 641, 701, 700
605, 641, 642, 702, 701
606, 642, 643, 703, 702
607, 643, 644, 704, 703
608, 644, 645, 705, 704
609, 645, 646, 706, 705
610, 646, 647, 707, 706
611, 647, 648, 708, 707
612, 648, 649, 709, 708
613, 649, 650, 710, 709
614, 650, 651, 711, 710
615, 651, 652, 712, 711
616, 652, 653, 713, 712
617, 653, 654, 714, 713
618, 654, 655, 715, 714
619, 655, 656, 716, 715
620, 656, 657, 717, 716
621, 659, 658, 718, 719
622, 658, 660, 720, 718
623, 660, 661, 721, 720
624, 661, 662, 722, 721
625, 662, 663, 723, 722
626, 663, 664, 724, 723
627, 664, 665, 725, 724
628, 665, 666, 726, 725
629, 666, 667, 727, 726
630, 667, 668, 728, 727
631, 668, 669, 729, 728
632, 669, 670, 730, 729
633, 670, 671, 731, 730
634, 671, 672, 732, 731
635, 672, 673, 733, 732
636, 673, 674, 734, 733
637, 674, 675, 735, 734
638, 675, 676, 736, 735
639, 676, 677, 737, 736
640, 677, 678, 738, 737
641, 678, 679, 739, 738
642, 679, 680, 740, 739
643, 680, 681, 741, 740
644, 681, 682, 742, 741
645, 682, 683, 743, 742
646, 683, 684, 744, 743
647, 684, 685, 745, 744
648, 685, 686, 746, 745
649, 686, 687, 747, 746
650, 687, 688, 748, 747
651, 688, 689, 749, 748
652, 689, 690, 750, 749
653, 690, 691, 751, 750
654, 691, 692, 752, 751
655, 692, 693, 753, 752
656, 693, 694, 754, 753
657, 694, 695, 755, 754
658, 695, 696, 756, 755
659, 696, 697, 757, 756
660, 697, 698, 758, 757
661, 698, 699, 759, 758
662, 699, 700, 760, 759
663, 700, 701, 761, 760
664, 701, 702, 762, 761
665, 702, 703, 763, 762
666, 703, 704, 764, 763
667, 704, 705, 765, 764
668, 705, 706, 766, 765
669, 706, 707, 767, 766
670, 707, 708, 768, 767
671, 708, 709, 769, 768
672, 709, 710, 770, 769
673, 710, 711, 771, 770
674, 711, 712, 772, 771
675, 712, 713, 773, 772
676, 713, 714, 774, 773
677, 714, 715, 775, 774
678, 715, 716, 776, 775
679, 716, 717, 777, 776
680, 719, 718, 778, 779
681, 718, 720, 780, 778
682, 720, 721, 781, 780
683, 721, 722, 782, 781
684, 722, 723, 783, 782
685, 723, 724, 784, 783
686, 724, 725, 785, 784
687, 725, 726, 786, 785
688, 726, 727, 787, 786
689, 727, 728, 788, 787
690, 728, 729, 789, 788
691, 729, 730, 790, 789
692, 730, 731, 791, 790
693, 731, 732, 792, 791
694, 732, 733, 793, 792
695, 733, 734, 794, 793
696, 734, 735, 795, 794
697, 735, 736, 796, 795
698, 736, 737, 797, 796
699, 737, 738, 798, 797
700, 738, 739, 799, 798
701, 739, 740, 800, 799
702, 740, 741, 801, 800
703, 741, 742, 802, 801
704, 742, 743, 803, 802
705, 743, 744, 804, 803
706, 744, 745, 805, 804
707, 745, 746, 806, 805
708, 746, 747, 807, 806
709, 747, 748, 808, 807
710, 748, 749, 809, 808
711, 749, 750, 810, 809
712, 750, 751, 811, 810
713, 751, 752, 812, 811
714, 752, 753, 813, 812
715, 753, 754, 814, 813
716, 754, 755, 815, 814
717, 755, 756, 816, 815
718, 756, 757, 817, 816
719, 757, 758, 818, 817
720, 758, 759, 819, 818
721, 759, 760, 820, 819
722, 760, 761, 821, 820
723, 761, 762, 822, 821
724, 762, 763, 823, 822
725, 763, 764, 824, 823
726, 764, 765, 825, 824
727, 765, 766, 826, 825
728, 766, 767, 827, 826
729, 767, 768, 828, 827
730, 768, 769, 829, 828
731, 769, 770, 830, 829
732, 770, 771, 831, 830
733, 771, 772, 832, 831
734, 772, 773, 833, 832
735, 773, 774, 834, 833
736, 774, 775, 835, 834
737, 775, 776, 836, 835
738, 776, 777, 837, 836
739, 779, 778, 838, 839
740, 778, 780, 840, 838
741, 780, 781, 841, 840
742, 781, 782, 842, 841
743, 782, 783, 843, 842
744, 783, 784, 844, 843
745, 784, 785, 845, 844
746, 785, 786, 846, 845
747, 786, 787, 847, 846
748, 787, 788, 848, 847
749, 788, 789, 849, 848
750, 789, 790, 850, 849
751, 790, 791, 851, 850
752, 791, 792, 852, 851
753, 792, 793, 853, 852
754, 793, 794, 854, 853
755, 794, 795, 855, 854
756, 795, 796, 856, 855
757, 796, 797, 857, 856
758, 797, 798, 858, 857
759, 798, 799, 859, 858
760, 799, 800, 860, 859
761, 800, 801, 861, 860
762, 801, 802, 862, 861
763, 802, 803, 863, 862
764, 803, 804, 864, 863
765, 804, 805, 865, 864
766, 805, 806, 866, 865
767, 806, 807, 867, 866
768, 807, 808, 868, 867
769, 808, 809, 869, 868
770, 809, 810, 870, 869
771, 810, 811, 871, 870
772, 811, 812, 872, 871
773, 812, 813, 873, 872
774, 813, 814, 874, 873
775, 814, 815, 875, 874
776, 815, 816, 876, 875
777, 816, 817, 877, 876
778, 817, 818, 878, 877
779, 818, 819, 879, 878
780, 819, 820, 880, 879
781, 820, 821, 881, 880
782, 821, 822, 882, 881
783, 822, 823, 883, 882
784, 823, 824, 884, 883
785, 824, 825, 885, 884
786, 825, 826, 886, 885
787, 826, 827, 887, 886
788, 827, 828, 888, 887
789, 828, 829, 889, 888
790, 829, 830, 890, 889
791, 830, 831, 891, 890
792, 831, 832, 892, 891
793, 832, 833, 893, 892
794, 833, 834, 894, 893
795, 834, 835, 895, 894
796, 835, 836, 896, 895
797, 836, 837, 897, 896
798, 839, 838, 898, 899
799, 838, 840, 900, 898
800, 840, 841, 901, 900
801, 841, 842, 902, 901
802, 842, 843, 903, 902
803, 843, 844, 904, 903
804, 844, 845, 905, 904
805, 845, 846, 906, 905
806, 846, 847, 907, 906
807, 847, 848, 908, 907
808, 848, 849, 909, 908
809, 849, 850, 910, 909
810, 850, 851, 911, 910
811, 851, 852, 912, 911
812, 852, 853, 913, 912
813, 853, 854, 914, 913
814, 854, 855, 915, 914
815, 855, 856, 916, 915
816, 856, 857, 917, 916
817, 857, 858, 918, 917
818, 858, 859, 919, 918
819, 859, 860, 920, 919
820, 860, 861, 921, 920
821, 861, 862, 922, 921
822, 862, 863, 923, 922
823, 863, 864, 924, 923
824, 864, 865, 925, 924
825, 865, 866, 926, 925
826, 866, 867, 927, 926
827, 867, 868, 928, 927
828, 868, 869, 929, 928
829, 869, 870, 930, 929
830, 870, 871, 931, 930
831, 871, 872, 932, 931
832, 872, 873, 933, 932
833, 873, 874, 934, 933
834, 874, 875, 935, 934
835, 875, 876, 936, 935
836, 876, 877, 937, 936
837, 877, 878, 938, 937
838, 878, 879, 939, 938
839, 879, 880, 940, 939
840, 880, 881, 941, 940
841, 881, 882, 942, 941
842, 882, 883, 943, 942
843, 883, 884, 944, 943
844, 884, 885, 945, 944
845, 885, 886, 946, 945
846, 886, 887, 947, 946
847, 887, 888, 948, 947
848, 888, 889, 949, 948
849, 889, 890, 950, 949
850, 890, 891, 951, 950
851, 891, 892, 952, 951
852, 892, 893, 953, 952
853, 893, 894, 954, 953
854, 894, 895, 955, 954
855, 895, 896, 956, 955
856, 896, 897, 957, 956
857, 899, 898, 958, 959
858, 898, 900, 960, 958
859, 900, 901, 961, 960
860, 901, 902, 962, 961
861, 902, 903, 963, 962
862, 903, 904, 964, 963
863, 904, 905, 965, 964
864, 905, 906, 966, 965
865, 906, 907, 967, 966
866, 907, 908, 968, 967
867, 908, 909, 969, 968
868, 909, 910, 970, 969
869, 910, 911, 971, 970
870, 911, 912, 972, 971
871, 912, 913, 973, 972
872, 913, 914, 974, 973
873, 914, 915, 975, 974
874, 915, 916, 976, 975
875, 916, 917, 977, 976
876, 917, 918, 978, 977
877, 918, 919, 979, 978
878, 919, 920, 980, 979
879, 920, 921, 981, 980
880, 921, 922, 982, 981
881, 922, 923, 983, 982
882, 923, 924, 984, 983
883, 924, 925, 985, 984
884, 925, 926, 986, 985
885, 926, 927, 987, 986
886, 927, 928, 988, 987
887, 928, 929, 989, 988
888, 929, 930, 990, 989
889, 930, 931, 991, 990
890, 931, 932, 992, 991
891, 932, 933, 993, 992
892, 933, 934, 994, 993
893, 934, 935, 995, 994
894, 935, 936, 996, 995
895, 936, 937, 997, 996
896, 937, 938, 998, 997
897, 938, 939, 999, 998
898, 939, 940, 1000, 999
899, 940, 941, 1001, 1000
900, 941, 942, 1002, 1001
901, 942, 943, 1003, 1002
902, 943, 944, 1004, 1003
903, 944, 945, 1005, 1004
904, 945, 946, 1006, 1005
905, 946, 947, 1007, 1006
906, 947, 948, 1008, 1007
907, 948, 949, 1009, 1008
908, 949, 950, 1010, 1009
909, 950, 951, 1011, 1010
910, 951, 952, 1012, 1011
911, 952, 953, 1013, 1012
912, 953, 954, 1014, 1013
913, 954, 955, 1015, 1014
914, 955, 956, 1016, 1015
915, 956, 957, 1017, 1016
916, 959, 958, 1018, 1019
917, 958, 960, 1020, 1018
918, 960, 961, 1021, 1020
919, 961, 962, 1022, 1021
920, 962, 963, 1023, 1022
921, 963, 964, 1024, 1023
922, 964, 965, 1025, 1024
923, 965, 966, 1026, 1025
924, 966, 967, 1027, 1026
925, 967, 968, 1028, 1027
926, 968, 969, 1029, 1028
927, 969, 970, 1030, 1029
928, 970, 971, 1031, 1030
929, 971, 972, 1032, 1031
930, 972, 973, 1033, 1032
931, 973, 974, 1034, 1033
932, 974, 975, 1035, 1034
933, 975, 976, 1036, 1035
934, 976, 977, 1037, 1036
935, 977, 978, 1038, 1037
936, 978, 979, 1039, 1038
937, 979, 980, 1040, 1039
938, 980, 981, 1041, 1040
939, 981, 982, 1042, 1041
940, 982, 983, 1043, 1042
941, 983, 984, 1044, 1043
942, 984, 985, 1045, 1044
943, 985, 986, 1046, 1045
944, 986, 987, 1047, 1046
945, 987, 988, 1048, 1047
946, 988, 989, 1049, 1048
947, 989, 990, 1050, 1049
948, 990, 991, 1051, 1050
949, 991, 992, 1052, 1051
950, 992, 993, 1053, 1052
951, 993, 994, 1054, 1053
952, 994, 995, 1055, 1054
953, 995, 996, 1056, 1055
954, 996, 997, 1057, 1056
955, 997, 998, 1058, 1057
956, 998, 999, 1059, 1058
957, 999, 1000, 1060, 1059
958, 1000, 1001, 1061, 1060
959, 1001, 1002, 1062, 1061
960, 1002, 1003, 1063, 1062
961, 1003, 1004, 1064, 1063
962, 1004, 1005, 1065, 1064
963, 1005, 1006, 1066, 1065
964, 1006, 1007, 1067, 1066
965, 1007, 1008, 1068, 1067
966, 1008, 1009, 1069, 1068
967, 1009, 1010, 1070, 1069
968, 1010, 1011, 1071, 1070
969, 1011, 1012, 1072, 1071
970, 1012, 1013, 1073, 1072
971, 1013, 1014, 1074, 1073
972, 1014, 1015, 1075, 1074
973, 1015, 1016, 1076, 1075
974, 1016, 1017, 1077, 1076
975, 1019, 1018, 1078, 1079
976, 1018, 1020, 1080, 1078
977, 1020, 1021, 1081, 1080
978, 1021, 1022, 1082, 1081
979, 1022, 1023, 1083, 1082
980, 1023, 1024, 1084, 1083
981, 1024, 1025, 1085, 1084
982, 1025, 1026, 1086, 1085
983, 1026, 1027, 1087, 1086
984, 1027, 1028, 1088, 1087
985, 1028, 1029, 1089, 1088
986, 1029, 1030, 1090, 1089
987, 1030, 1031, 1091, 1090
988, 1031, 1032, 1092, 1091
989, 1032, 1033, 1093, 1092
990, 1033, 1034, 1094, 1093
991, 1034, 1035, 1095, 1094
992, 1035, 1036, 1096, 1095
993, 1036, 1037, 1097, 1096
994, 1037, 1038, 1098, 1097
995, 1038, 1039, 1099, 1098
996, 1039, 1040, 1100, 1099
997, 1040, 1041, 1101, 1100
998, 1041, 1042, 1102, 1101
999, 1042, 1043, 1103, 1102
1000, 1043, 1044, 1104, 1103
1001, 1044, 1045, 1105, 1104
1002, 1045, 1046, 1106, 1105
1003, 1046, 1047, 1107, 1106
1004, 1047, 1048, 1108, 1107
1005, 1048, 1049, 1109, 1108
1006, 1049, 1050, 1110, 1109
1007, 1050, 1051, 1111, 1110
1008, 1051, 1052, 1112, 1111
1009, 1052, 1053, 1113, 1112
1010, 1053, 1054, 1114, 1113
1011, 1054, 1055, 1115, 1114
1012, 1055, 1056, 1116, 1115
1013, 1056, 1057, 1117, 1116
1014, 1057, 1058, 1118, 1117
1015, 1058, 1059, 1119, 1118
1016, 1059, 1060, 1120, 1119
1017, 1060, 1061, 1121, 1120
1018, 1061, 1062, 1122, 1121
1019, 1062, 1063, 1123, 1122
1020, 1063, 1064, 1124, 1123
1021, 1064, 1065, 1125, 1124
1022, 1065, 1066, 1126, 1125
1023, 1066, 1067, 1127, 1126
1024, 1067, 1068, 1128, 1127
1025, 1068, 1069, 1129, 1128
1026, 1069, 1070, 1130, 1129
1027, 1070, 1071, 1131, 1130
1028, 1071, 1072, 1132, 1131
1029, 1072, 1073, 1133, 1132
1030, 1073, 1074, 1134, 1133
1031, 1074, 1075, 1135, 1134
1032, 1075, 1076, 1136, 1135
1033, 1076, 1077, 1137, 1136
1034, 1079, 1078, 1138, 1139
1035, 1078, 1080, 1140, 1138
1036, 1080, 1081, 1141, 1140
1037, 1081, 1082, 1142, 1141
1038, 1082, 1083, 1143, 1142
1039, 1083, 1084, 1144, 1143
1040, 1084, 1085, 1145, 1144
1041, 1085, 1086, 1146, 1145
1042, 1086, 1087, 1147, 1146
1043, 1087, 1088, 1148, 1147
1044, 1088, 1089, 1149, 1148
1045, 1089, 1090, 1150, 1149
1046, 1090, 1091, 1151, 1150
1047, 1091, 1092, 1152, 1151
1048, 1092, 1093, 1153, 1152
1049, 1093, 1094, 1154, 1153
1050, 1094, 1095, 1155, 1154
1051, 1095, 1096, 1156, 1155
1052, 1096, 1097, 1157, 1156
1053, 1097, 1098, 1158, 1157
1054, 1098, 1099, 1159, 1158
1055, 1099, 1100, 1160, 1159
1056, 1100, 1101, 1161, 1160
1057, 1101, 1102, 1162, 1161
1058, 1102, 1103, 1163, 1162
1059, 1103, 1104, 1164, 1163
1060, 1104, 1105, 1165, 1164
1061, 1105, 1106, 1166, 1165
1062, 1106, 1107, 1167, 1166
1063, 1107, 1108, 1168, 1167
1064, 1108, 1109, 1169, 1168
1065, 1109, 1110, 1170, 1169
1066, 1110, 1111, 1171, 1170
1067, 1111, 1112, 1172, 1171
1068, 1112, 1113, 1173, 1172
1069, 1113, 1114, 1174, 1173
1070, 1114, 1115, 1175, 1174
1071, 1115, 1116, 1176, 1175
1072, 1116, 1117, 1177, 1176
1073, 1117, 1118, 1178, 1177
1074, 1118, 1119, 1179, 1178
1075, 1119, 1120, 1180, 1179
1076, 1120, 1121, 1181, 1180
1077, 1121, 1122, 1182, 1181
1078, 1122, 1123, 1183, 1182
1079, 1123, 1124, 1184, 1183
1080, 1124, 1125, 1185, 1184
1081, 1125, 1126, 1186, 1185
1082, 1126, 1127, 1187, 1186
1083, 1127, 1128, 1188, 1187
1084, 1128, 1129, 1189, 1188
1085, 1129, 1130, 1190, 1189
1086, 1130, 1131, 1191, 1190
1087, 1131, 1132, 1192, 1191
1088, 1132, 1133, 1193, 1192
1089, 1133, 1134, 1194, 1193
1090, 1134, 1135, 1195, 1194
1091, 1135, 1136, 1196, 1195
1092, 1136, 1137, 1197, 1196
1093, 1139, 1138, 1198, 1199
1094, 1138, 1140, 1200, 1198
1095, 1140, 1141, 1201, 1200
1096, 1141, 1142, 1202, 1201
1097, 1142, 1143, 1203, 1202
1098, 1143, 1144, 1204, 1203
1099, 1144, 1145, 1205, 1204
1100, 1145, 1146, 1206, 1205
1101, 1146, 1147, 1207, 1206
1102, 1147, 1148, 1208, 1207
1103, 1148, 1149, 1209, 1208
1104, 1149, 1150, 1210, 1209
1105, 1150, 1151, 1211, 1210
1106, 1151, 1152, 1212, 1211
1107, 1152, 1153, 1213, 1212
1108, 1153, 1154, 1214, 1213
1109, 1154, 1155, 1215, 1214
1110, 1155, 1156, 1216, 1215
1111, 1156, 1157, 1217, 1216
1112, 1157, 1158, 1218, 1217
1113, 1158, 1159, 1219, 1218
1114, 1159, 1160, 1220, 1219
1115, 1160, 1161, 1221, 1220
1116, 1161, 1162, 1222, 1221
1117, 1162, 1163, 1223, 1222
1118, 1163, 1164, 1224, 1223
1119, 1164, 1165, 1225, 1224
1120, 1165, 1166, 1226, 1225
1121, 1166, 1167, 1227, 1226
1122, 1167, 1168, 1228, 1227
1123, 1168, 1169, 1229, 1228
1124, 1169, 1170, 1230, 1229
1125, 1170, 1171, 1231, 1230
1126, 1171, 1172, 1232, 1231
1127, 1172, 1173, 1233, 1232
1128, 1173, 1174, 1234, 1233
1129, 1174, 1175, 1235, 1234
1130, 1175, 1176, 1236, 1235
1131, 1176, 1177, 1237, 1236
1132, 1177, 1178, 1238, 1237
1133, 1178, 1179, 1239, 1238
1134, 1179, 1180, 1240, 1239
1135, 1180, 1181, 1241, 1240
1136, 1181, 1182, 1242, 1241
1137, 1182, 1183, 1243, 1242
1138, 1183, 1184, 1244, 1243
1139, 1184, 1185, 1245, 1244
1140, 1185, 1186, 1246, 1245
1141, 1186, 1187, 1247, 1246
1142, 1187, 1188, 1248, 1247
1143, 1188, 1189, 1249, 1248
1144, 1189, 1190, 1250, 1249
1145, 1190, 1191, 1251, 1250
1146, 1191, 1192, 1252, 1251
1147, 1192, 1193, 1253, 1252
1148, 1193, 1194, 1254, 1253
1149, 1194, 1195, 1255, 1254
1150, 1195, 1196, 1256, 1255
1151, 1196, 1197, 1257, 1256
1152, 1199, 1198, 1258, 1259
1153, 1198, 1200, 1260, 1258
1154, 1200, 1201, 1261, 1260
1155, 1201, 1202, 1262, 1261
1156, 1202, 1203, 1263, 1262
1157, 1203, 1204, 1264, 1263
1158, 1204, 1205, 1265, 1264
1159, 1205, 1206, 1266, 1265
1160, 1206, 1207, 1267, 1266
1161, 1207, 1208, 1268, 1267
1162, 1208, 1209, 1269, 1268
1163, 1209, 1210, 1270, 1269
1164, 1210, 1211, 1271, 1270
1165, 1211, 1212, 1272, 1271
1166, 1212, 1213, 1273, 1272
1167, 1213, 1214, 1274, 1273
1168, 1214, 1215, 1275, 1274
1169, 1215, 1216, 1276, 1275
1170, 1216, 1217, 1277, 1276
1171, 1217, 1218, 1278, 1277
1172, 1218, 1219, 1279, 1278
1173, 1219, 1220, 1280, 1279
1174, 1220, 1221, 1281, 1280
1175, 1221, 1222, 1282, 1281
1176, 1222, 1223, 1283, 1282
1177, 1223, 1224, 1284, 1283
1178, 1224, 1225, 1285, 1284
1179, 1225, 1226, 1286, 1285
1180, 1226, 1227, 1287, 1286
1181, 1227, 1228, 1288, 1287
1182, 1228, 1229, 1289, 1288
1183, 1229, 1230, 1290, 1289
1184, 1230, 1231, 1291, 1290
1185, 1231, 1232, 1292, 1291
1186, 1232, 1233, 1293, 1292
1187, 1233, 1234, 1294, 1293
1188, 1234, 1235, 1295, 1294
1189, 1235, 1236, 1296, 1295
1190, 1236, 1237, 1297, 1296
1191, 1237, 1238, 1298, 1297
1192, 1238, 1239, 1299, 1298
1193, 1239, 1240, 1300, 1299
1194, 1240, 1241, 1301, 1300
1195, 1241, 1242, 1302, 1301
1196, 1242, 1243, 1303, 1302
1197, 1243, 1244, 1304, 1303
1198, 1244, 1245, 1305, 1304
1199, 1245, 1246, 1306, 1305
1200, 1246, 1247, 1307, 1306
1201, 1247, 1248, 1308, 1307
1202, 1248, 1249, 1309, 1308
1203, 1249, 1250, 1310, 1309
1204, 1250, 1251, 1311, 1310
1205, 1251, 1252, 1312, 1311
1206, 1252, 1253, 1313, 1312
1207, 1253, 1254, 1314, 1313
1208, 1254, 1255, 1315, 1314
1209, 1255, 1256, 1316, 1315
1210, 1256, 1257, 1317, 1316
1211, 1259, 1258, 1318, 1319
1212, 1258, 1260, 1320, 1318
1213, 1260, 1261, 1321, 1320
1214, 1261, 1262, 1322, 1321
1215, 1262, 1263, 1323, 1322
1216, 1263, 1264, 1324, 1323
1217, 1264, 1265, 1325, 1324
1218, 1265, 1266, 1326, 1325
1219, 1266, 1267, 1327, 1326
1220, 1267, 1268, 1328, 1327
1221, 1268, 1269, 1329, 1328
1222, 1269, 1270, 1330, 1329
1223, 1270, 1271, 1331, 1330
1224, 1271, 1272, 1332, 1331
1225, 1272, 1273, 1333, 1332
1226, 1273, 1274, 1334, 1333
1227, 1274, 1275, 1335, 1334
1228, 1275, 1276, 1336, 1335
1229, 1276, 1277, 1337, 1336
1230, 1277, 1278, 1338, 1337
1231, 1278, 1279, 1339, 1338
1232, 1279, 1280, 1340, 1339
1233, 1280, 1281, 1341, 1340
1234, 1281, 1282, 1342, 1341
1235, 1282, 1283, 1343, 1342
1236, 1283, 1284, 1344, 1343
1237, 1284, 1285, 1345, 1344
1238, 1285, 1286, 1346, 1345
1239, 1286, 1287, 1347, 1346
1240, 1287, 1288, 1348, 1347
1241, 1288, 1289, 1349, 1348
1242, 1289, 1290, 1350, 1349
1243, 1290, 1291, 1351, 1350
1244, 1291, 1292, 1352, 1351
1245, 1292, 1293, 1353, 1352
1246, 1293, 1294, 1354, 1353
1247, 1294, 1295, 1355, 1354
1248, 1295, 1296, 1356, 1355
1249, 1296, 1297, 1357, 1356
1250, 1297, 1298, 1358, 1357
1251, 1298, 1299, 1359, 1358
1252, 1299, 1300, 1360, 1359
1253, 1300, 1301, 1361, 1360
1254, 1301, 1302, 1362, 1361
1255, 1302, 1303, 1363, 1362
1256, 1303, 1304, 1364, 1363
1257, 1304, 1305, 1365, 1364
1258, 1305, 1306, 1366, 1365
1259, 1306, 1307, 1367, 1366
1260, 1307, 1308, 1368, 1367
1261, 1308, 1309, 1369, 1368
1262, 1309, 1310, 1370, 1369
1263, 1310, 1311, 1371, 1370
1264, 1311, 1312, 1372, 1371
1265, 1312, 1313, 1373, 1372
1266, 1313, 1314, 1374, 1373
1267, 1314, 1315, 1375, 1374
1268, 1315, 1316, 1376, 1375
1269, 1316, 1317, 1377, 1376
1270, 1319, 1318, 1378, 1379
1271, 1318, 1320, 1380, 1378
1272, 1320, 1321, 1381, 1380
1273, 1321, 1322, 1382, 1381
1274, 1322, 1323, 1383, 1382
1275, 1323, 1324, 1384, 1383
1276, 1324, 1325, 1385, 1384
1277, 1325, 1326, 1386, 1385
1278, 1326, 1327, 1387, 1386
1279, 1327, 1328, 1388, 1387
1280, 1328, 1329, 1389, 1388
1281, 1329, 1330, 1390, 1389
1282, 1330, 1331, 1391, 1390
1283, 1331, 1332, 1392, 1391
1284, 1332, 1333, 1393, 1392
1285, 1333, 1334, 1394, 1393
1286, 1334, 1335, 1395, 1394
1287, 1335, 1336, 1396, 1395
1288, 1336, 1337, 1397, 1396
1289, 1337, 1338, 1398, 1397
1290, 1338, 1339, 1399, 1398
1291, 1339, 1340, 1400, 1399
1292, 1340, 1341, 1401, 1400
1293, 1341, 1342, 1402, 1401
1294, 1342, 1343, 1403, 1402
1295, 1343, 1344, 1404, 1403
1296, 1344, 1345, 1405, 1404
1297, 1345, 1346, 1406, 1405
1298, 1346, 1347, 1407, 1406
1299, 1347, 1348, 1408, 1407
1300, 1348, 1349, 1409, 1408
1301, 1349, 1350, 1410, 1409
1302, 1350, 1351, 1411, 1410
1303, 1351, 1352, 1412, 1411
1304, 1352, 1353, 1413, 1412
1305, 1353, 1354, 1414, 1413
1306, 1354, 1355, 1415, 1414
1307, 1355, 1356, 1416, 1415
1308, 1356, 1357, 1417, 1416
1309, 1357, 1358, 1418, 1417
1310, 1358, 1359, 1419, 1418
1311, 1359, 1360, 1420, 1419
1312, 1360, 1361, 1421, 1420
1313, 1361, 1362, 1422, 1421
1314, 1362, 1363, 1423, 1422
1315, 1363, 1364, 1424, 1423
1316, 1364, 1365, 1425, 1424
1317, 1365, 1366, 1426, 1425
1318, 1366, 1367, 1427, 1426
1319, 1367, 1368, 1428, 1427
1320, 1368, 1369, 1429, 1428
1321, 1369, 1370, 1430, 1429
1322, 1370, 1371, 1431, 1430
1323, 1371, 1372, 1432, 1431
1324, 1372, 1373, 1433, 1432
1325, 1373, 1374, 1434, 1433
1326, 1374, 1375, 1435, 1434
1327, 1375, 1376, 1436, 1435
1328, 1376, 1377, 1437, 1436
1329, 1379, 1378, 1438, 1439
1330, 1378, 1380, 1440, 1438
1331, 1380, 1381, 1441, 1440
1332, 1381, 1382, 1442, 1441
1333, 1382, 1383, 1443, 1442
1334, 1383, 1384, 1444, 1443
1335, 1384, 1385, 1445, 1444
1336, 1385, 1386, 1446, 1445
1337, 1386, 1387, 1447, 1446
1338, 1387, 1388, 1448, 1447
1339, 1388, 1389, 1449, 1448
1340, 1389, 1390, 1450, 1449
1341, 1390, 1391, 1451, 1450
1342, 1391, 1392, 1452, 1451
1343, 1392, 1393, 1453, 1452
1344, 1393, 1394, 1454, 1453
1345, 1394, 1395, 1455, 1454
1346, 1395, 1396, 1456, 1455
1347, 1396, 1397, 1457, 1456
1348, 1397, 1398, 1458, 1457
1349, 1398, 1399, 1459, 1458
1350, 1399, 1400, 1460, 1459
1351, 1400, 1401, 1461, 1460
1352, 1401, 1402, 1462, 1461
1353, 1402, 1403, 1463, 1462
1354, 1403, 1404, 1464, 1463
1355, 1404, 1405, 1465, 1464
1356, 1405, 1406, 1466, 1465
1357, 1406, 1407, 1467, 1466
1358, 1407, 1408, 1468, 1467
1359, 1408, 1409, 1469, 1468
1360, 1409, 1410, 1470, 1469
1361, 1410, 1411, 1471, 1470
1362, 1411, 1412, 1472, 1471
1363, 1412, 1413, 1473, 1472
1364, 1413, 1414, 1474, 1473
1365, 1414, 1415, 1475, 1474
1366, 1415, 1416, 1476, 1475
1367, 1416, 1417, 1477, 1476
1368, 1417, 1418, 1478, 1477
1369, 1418, 1419, 1479, 1478
1370, 1419, 1420, 1480, 1479
1371, 1420, 1421, 1481, 1480
1372, 1421, 1422, 1482, 1481
1373, 1422, 1423, 1483, 1482
1374, 1423, 1424, 1484, 1483
1375, 1424, 1425, 1485, 1484
1376, 1425, 1426, 1486, 1485
1377, 1426, 1427, 1487, 1486
1378, 1427, 1428, 1488, 1487
1379, 1428, 1429, 1489, 1488
1380, 1429, 1430, 1490, 1489
1381, 1430, 1431, 1491, 1490
1382, 1431, 1432, 1492, 1491
1383, 1432, 1433, 1493, 1492
1384, 1433, 1434, 1494, 1493
1385, 1434, 1435, 1495, 1494
1386, 1435, 1436, 1496, 1495
1387, 1436, 1437, 1497, 1496
1388, 1439, 1438, 1498, 1499
1389, 1438, 1440, 1500, 1498
1390, 1440, 1441, 1501, 1500
1391, 1441, 1442, 1502, 1501
1392, 1442, 1443, 1503, 1502
1393, 1443, 1444, 1504, 1503
1394, 1444, 1445, 1505, 1504
1395, 1445, 1446, 1506, 1505
1396, 1446, 1447, 1507, 1506
1397, 1447, 1448, 1508, 1507
1398, 1448, 1449, 1509, 1508
1399, 1449, 1450, 1510, 1509
1400, 1450, 1451, 1511, 1510
1401, 1451, 1452, 1512, 1511
1402, 1452, 1453, 1513, 1512
1403, 1453, 1454, 1514, 1513
1404, 1454, 1455, 1515, 1514
1405, 1455, 1456, 1516, 1515
1406, 1456, 1457, 1517, 1516
1407, 1457, 1458, 1518, 1517
1408, 1458, 1459, 1519, 1518
1409, 1459, 1460, 1520, 1519
1410, 1460, 1461, 1521, 1520
1411, 1461, 1462, 1522, 1521
1412, 1462, 1463, 1523, 1522
1413, 1463, 1464, 1524, 1523
1414, 1464, 1465, 1525, 1524
1415, 1465, 1466, 1526, 1525
1416, 1466, 1467, 1527, 1526
1417, 1467, 1468, 1528, 1527
1418, 1468, 1469, 1529, 1528
1419, 1469, 1470, 1530, 1529
1420, 1470, 1471, 1531, 1530
1421, 1471, 1472, 1532, 1531
1422, 1472, 1473, 1533, 1532
1423, 1473, 1474, 1534, 1533
1424, 1474, 1475, 1535, 1534
1425, 1475, 1476, 1536, 1535
1426, 1476, 1477, 1537, 1536
1427, 1477, 1478, 1538, 1537
1428, 1478, 1479, 1539, 1538
1429, 1479, 1480, 1540, 1539
1430, 1480, 1481, 1541, 1540
1431, 1481, 1482, 1542, 1541
1432, 1482, 1483, 1543, 1542
1433, 1483, 1484, 1544, 1543
1434, 1484, 1485, 1545, 1544
1435, 1485, 1486, 1546, 1545
1436, 1486, 1487, 1547, 1546
1437, 1487, 1488, 1548, 1547
1438, 1488, 1489, 1549, 1548
1439, 1489, 1490, 1550, 1549
1440, 1490, 1491, 1551, 1550
1441, 1491, 1492, 1552, 1551
1442, 1492, 1493, 1553, 1552
1443, 1493, 1494, 1554, 1553
1444, 1494, 1495, 1555, 1554
1445, 1495, 1496, 1556, 1555
1446, 1496, 1497, 1557, 1556
1447, 1499, 1498, 1558, 1559
1448, 1498, 1500, 1560, 1558
1449, 1500, 1501, 1561, 1560
1450, 1501, 1502, 1562, 1561
1451, 1502, 1503, 1563, 1562
1452, 1503, 1504, 1564, 1563
1453, 1504, 1505, 1565, 1564
1454, 1505, 1506, 1566, 1565
1455, 1506, 1507, 1567, 1566
1456, 1507, 1508, 1568, 1567
1457, 1508, 1509, 1569, 1568
1458, 1509, 1510, 1570, 1569
1459, 1510, 1511, 1571, 1570
1460, 1511, 1512, 1572, 1571
1461, 1512, 1513, 1573, 1572
1462, 1513, 1514, 1574, 1573
1463, 1514, 1515, 1575, 1574
1464, 1515, 1516, 1576, 1575
1465, 1516, 1517, 1577, 1576
1466, 1517, 1518, 1578, 1577
1467, 1518, 1519, 1579, 1578
1468, 1519, 1520, 1580, 1579
1469, 1520, 1521, 1581, 1580
1470, 1521, 1522, 1582, 1581
1471, 1522, 1523, 1583, 1582
1472, 1523, 1524, 1584, 1583
1473, 1524, 1525, 1585, 1584
1474, 1525, 1526, 1586, 1585
1475, 1526, 1527, 1587, 1586
1476, 1527, 1528, 1588, 1587
1477, 1528, 1529, 1589, 1588
1478, 1529, 1530, 1590, 1589
1479, 1530, 1531, 1591, 1590
1480, 1531, 1532, 1592, 1591
1481, 1532, 1533, 1593, 1592
1482, 1533, 1534, 1594, 1593
1483, 1534, 1535, 1595, 1594
1484, 1535, 1536, 1596, 1595
1485, 1536, 1537, 1597, 1596
1486, 1537, 1538, 1598, 1597
1487, 1538, 1539, 1599, 1598
1488, 1539, 1540, 1600, 1599
1489, 1540, 1541, 1601, 1600
1490, 1541, 1542, 1602, 1601
1491, 1542, 1543, 1603, 1602
1492, 1543, 1544, 1604, 1603
1493, 1544, 1545, 1605, 1604
1494, 1545, 1546, 1606, 1605
1495, 1546, 1547, 1607, 1606
1496, 1547, 1548, 1608, 1607
1497, 1548, 1549, 1609, 1608
1498, 1549, 1550, 1610, 1609
1499, 1550, 1551, 1611, 1610
1500, 1551, 1552, 1612, 1611
1501, 1552, 1553, 1613, 1612
1502, 1553, 1554, 1614, 1613
1503, 1554, 1555, 1615, 1614
1504, 1555, 1556, 1616, 1615
1505, 1556, 1557, 1617, 1616
1506, 1559, 1558, 1618, 1619
1507, 1558, 1560, 1620, 1618
1508, 1560, 1561, 1621, 1620
1509, 1561, 1562, 1622, 1621
1510, 1562, 1563, 1623, 1622
1511, 1563, 1564, 1624, 1623
1512, 1564, 1565, 1625, 1624
1513, 1565, 1566, 1626, 1625
1514, 1566, 1567, 1627, 1626
1515, 1567, 1568, 1628, 1627
1516, 1568, 1569, 1629, 1628
1517, 1569, 1570, 1630, 1629
1518, 1570, 1571, 1631, 1630
1519, 1571, 1572, 1632, 1631
1520, 1572, 1573, 1633, 1632
1521, 1573, 1574, 1634, 1633
1522, 1574, 1575, 1635, 1634
1523, 1575, 1576, 1636, 1635
1524, 1576, 1577, 1637, 1636
1525, 1577, 1578, 1638, 1637
1526, 1578, 1579, 1639, 1638
1527, 1579, 1580, 1640, 1639
1528, 1580, 1581, 1641, 1640
1529, 1581, 1582, 1642, 1641
1530, 1582, 1583, 1643, 1642
1531, 1583, 1584, 1644, 1643
1532, 1584, 1585, 1645, 1644
1533, 1585, 1586, 1646, 1645
1534, 1586, 1587, 1647, 1646
1535, 1587, 1588, 1648, 1647
1536, 1588, 1589, 1649, 1648
1537, 1589, 1590, 1650, 1649
1538, 1590, 1591, 1651, 1650
1539, 1591, 1592, 1652, 1651
1540, 1592, 1593, 1653, 1652
1541, 1593, 1594, 1654, 1653
1542, 1594, 1595, 1655, 1654
1543, 1595, 1596, 1656, 1655
1544, 1596, 1597, 1657, 1656
1545, 1597, 1598, 1658, 1657
1546, 1598, 1599, 1659, 1658
1547, 1599, 1600, 1660, 1659
1548, 1600, 1601, 1661, 1660
1549, 1601, 1602, 1662, 1661
1550, 1602, 1603, 1663, 1662
1551, 1603, 1604, 1664, 1663
1552, 1604, 1605, 1665, 1664
1553, 1605, 1606, 1666, 1665
1554, 1606, 1607, 1667, 1666
1555, 1607, 1608, 1668, 1667
1556, 1608, 1609, 1669, 1668
1557, 1609, 1610, 1670, 1669
1558, 1610, 1611, 1671, 1670
1559, 1611, 1612, 1672, 1671
1560, 1612, 1613, 1673, 1672
1561, 1613, 1614, 1674, 1673
1562, 1614, 1615, 1675, 1674
1563, 1615, 1616, 1676, 1675
1564, 1616, 1617, 1677, 1676
1565, 1619, 1618, 1678, 1679
1566, 1618, 1620, 1680, 1678
1567, 1620, 1621, 1681, 1680
1568, 1621, 1622, 1682, 1681
1569, 1622, 1623, 1683, 1682
1570, 1623, 1624, 1684, 1683
1571, 1624, 1625, 1685, 1684
1572, 1625, 1626, 1686, 1685
1573, 1626, 1627, 1687, 1686
1574, 1627, 1628, 1688, 1687
1575, 1628, 1629, 1689, 1688
1576, 1629, 1630, 1690, 1689
1577, 1630, 1631, 1691, 1690
1578, 1631, 1632, 1692, 1691
1579, 1632, 1633, 1693, 1692
1580, 1633, 1634, 1694, 1693
1581, 1634, 1635, 1695, 1694
1582, 1635, 1636, 1696, 1695
1583, 1636, 1637, 1697, 1696
1584, 1637, 1638, 1698, 1697
1585, 1638, 1639, 1699, 1698
1586, 1639, 1640, 1700, 1699
1587, 1640, 1641, 1701, 1700
1588, 1641, 1642, 1702, 1701
1589, 1642, 1643, 1703, 1702
1590, 1643, 1644, 1704, 1703
1591, 1644, 1645, 1705, 1704
1592, 1645, 1646, 1706, 1705
1593, 1646, 1647, 1707, 1706
1594, 1647, 1648, 1708, 1707
1595, 1648, 1649, 1709, 1708
1596, 1649, 1650, 1710, 1709
1597, 1650, 1651, 1711, 1710
1598, 1651, 1652, 1712, 1711
1599, 1652, 1653, 1713, 1712
1600, 1653, 1654, 1714, 1713
1601, 1654, 1655, 1715, 1714
1602, 1655, 1656, 1716, 1715
1603, 1656, 1657, 1717, 1716
1604, 1657, 1658, 1718, 1717
1605, 1658, 1659, 1719, 1718
1606, 1659, 1660, 1720, 1719
1607, 1660, 1661, 1721, 1720
1608, 1661, 1662, 1722, 1721
1609, 1662, 1663, 1723, 1722
1610, 1663, 1664, 1724, 1723
1611, 1664, 1665, 1725, 1724
1612, 1665, 1666, 1726, 1725
1613, 1666, 1667, 1727, 1726
1614, 1667, 1668, 1728, 1727
1615, 1668, 1669, 1729, 1728
1616, 1669, 1670, 1730, 1729
1617, 1670, 1671, 1731, 1730
1618, 1671, 1672, 1732, 1731
1619, 1672, 1673, 1733, 1732
1620, 1673, 1674, 1734, 1733
1621, 1674, 1675, 1735, 1734
1622, 1675, 1676, 1736, 1735
1623, 1676, 1677, 1737, 1736
1624, 1679, 1678, 1738, 1739
1625, 1678, 1680, 1740, 1738
1626, 1680, 1681, 1741, 1740
1627, 1681, 1682, 1742, 1741
1628, 1682, 1683, 1743, 1742
1629, 1683, 1684, 1744, 1743
1630, 1684, 1685, 1745, 1744
1631, 1685, 1686, 1746, 1745
1632, 1686, 1687, 1747, 1746
1633, 1687, 1688, 1748, 1747
1634, 1688, 1689, 1749, 1748
1635, 1689, 1690, 1750, 1749
1636, 1690, 1691, 1751, 1750
1637, 1691, 1692, 1752, 1751
1638, 1692, 1693, 1753, 1752
1639, 1693, 1694, 1754, 1753
1640, 1694, 1695, 1755, 1754
1641, 1695, 1696, 1756, 1755
1642, 1696, 1697, 1757, 1756
1643, 1697, 1698, 1758, 1757
1644, 1698, 1699, 1759, 1758
1645, 1699, 1700, 1760, 1759
1646, 1700, 1701, 1761, 1760
1647, 1701, 1702, 1762, 1761
1648, 1702, 1703, 1763, 1762
1649, 1703, 1704, 1764, 1763
1650, 1704, 1705, 1765, 1764
1651, 1705, 1706, 1766, 1765
1652, 1706, 1707, 1767, 1766
1653, 1707, 1708, 1768, 1767
1654, 1708, 1709, 1769, 1768
1655, 1709, 1710, 1770, 1769
1656, 1710, 1711, 1771, 1770
1657, 1711, 1712, 1772, 1771
1658, 1712, 1713, 1773, 1772
1659, 1713, 1714, 1774, 1773
1660, 1714, 1715, 1775, 1774
1661, 1715, 1716, 1776, 1775
1662, 1716, 1717, 1777, 1776
1663, 1717, 1718, 1778, 1777
1664, 1718, 1719, 1779, 1778
1665, 1719, 1720, 1780, 1779
1666, 1720, 1721, 1781, 1780
1667, 1721, 1722, 1782, 1781
1668, 1722, 1723, 1783, 1782
1669, 1723, 1724, 1784, 1783
1670, 1724, 1725, 1785, 1784
1671, 1725, 1726, 1786, 1785
1672, 1726, 1727, 1787, 1786
1673, 1727, 1728, 1788, 1787
1674, 1728, 1729, 1789, 1788
1675, 1729, 1730, 1790, 1789
1676, 1730, 1731, 1791, 1790
1677, 1731, 1732, 1792, 1791
1678, 1732, 1733, 1793, 1792
1679, 1733, 1734, 1794, 1793
1680, 1734, 1735, 1795, 1794
1681, 1735, 1736, 1796, 1795
1682, 1736, 1737, 1797, 1796
1683, 1739, 1738, 1798, 1799
1684, 1738, 1740, 1800, 1798
1685, 1740, 1741, 1801, 1800
1686, 1741, 1742, 1802, 1801
1687, 1742, 1743, 1803, 1802
1688, 1743, 1744, 1804, 1803
1689, 1744, 1745, 1805, 1804
1690, 1745, 1746, 1806, 1805
1691, 1746, 1747, 1807, 1806
1692, 1747, 1748, 1808, 1807
1693, 1748, 1749, 1809, 1808
1694, 1749, 1750, 1810, 1809
1695, 1750, 1751, 1811, 1810
1696, 1751, 1752, 1812, 1811
1697, 1752, 1753, 1813, 1812
1698, 1753, 1754, 1814, 1813
1699, 1754, 1755, 1815, 1814
1700, 1755, 1756, 1816, 1815
1701, 1756, 1757, 1817, 1816
1702, 1757, 1758, 1818, 1817
1703, 1758, 1759, 1819, 1818
1704, 1759, 1760, 1820, 1819
1705, 1760, 1761, 1821, 1820
1706, 1761, 1762, 1822, 1821
1707, 1762, 1763, 1823, 1822
1708, 1763, 1764, 1824, 1823
1709, 1764, 1765, 1825, 1824
1710, 1765, 1766, 1826, 1825
1711, 1766, 1767, 1827, 1826
1712, 1767, 1768, 1828, 1827
1713, 1768, 1769, 1829, 1828
1714, 1769, 1770, 1830, 1829
1715, 1770, 1771, 1831, 1830
1716, 1771, 1772, 1832, 1831
1717, 1772, 1773, 1833, 1832
1718, 1773, 1774, 1834, 1833
1719, 1774, 1775, 1835, 1834
1720, 1775, 1776, 1836, 1835
1721, 1776, 1777, 1837, 1836
1722, 1777, 1778, 1838, 1837
1723, 1778, 1779, 1839, 1838
1724, 1779, 1780, 1840, 1839
1725, 1780, 1781, 1841, 1840
1726, 1781, 1782, 1842, 1841
1727, 1782, 1783, 1843, 1842
1728, 1783, 1784, 1844, 1843
1729, 1784, 1785, 1845, 1844
1730, 1785, 1786, 1846, 1845
1731, 1786, 1787, 1847, 1846
1732, 1787, 1788, 1848, 1847
1733, 1788, 1789, 1849, 1848
1734, 1789, 1790, 1850, 1849
1735, 1790, 1791, 1851, 1850
1736, 1791, 1792, 1852, 1851
1737, 1792, 1793, 1853, 1852
1738, 1793, 1794, 1854, 1853
1739, 1794, 1795, 1855, 1854
1740, 1795, 1796, 1856, 1855
1741, 1796, 1797, 1857, 1856
1742, 1799, 1798, 1858, 1859
1743, 1798, 1800, 1860, 1858
1744, 1800, 1801, 1861, 1860
1745, 1801, 1802, 1862, 1861
1746, 1802, 1803, 1863, 1862
1747, 1803, 1804, 1864, 1863
1748, 1804, 1805, 1865, 1864
1749, 1805, 1806, 1866, 1865
1750, 1806, 1807, 1867, 1866
1751, 1807, 1808, 1868, 1867
1752, 1808, 1809, 1869, 1868
1753, 1809, 1810, 1870, 1869
1754, 1810, 1811, 1871, 1870
1755, 1811, 1812, 1872, 1871
1756, 1812, 1813, 1873, 1872
1757, 1813, 1814, 1874, 1873
1758, 1814, 1815, 1875, 1874
1759, 1815, 1816, 1876, 1875
1760, 1816, 1817, 1877, 1876
1761, 1817, 1818, 1878, 1877
1762, 1818, 1819, 1879, 1878
1763, 1819, 1820, 1880, 1879
1764, 1820, 1821, 1881, 1880
1765, 1821, 1822, 1882, 1881
1766, 1822, 1823, 1883, 1882
1767, 1823, 1824, 1884, 1883
1768, 1824, 1825, 1885, 1884
1769, 1825, 1826, 1886, 1885
1770, 1826, 1827, 1887, 1886
1771, 1827, 1828, 1888, 1887
1772, 1828, 1829, 1889, 1888
1773, 1829, 1830, 1890, 1889
1774, 1830, 1831, 1891, 1890
1775, 1831, 1832, 1892, 1891
1776, 1832, 1833, 1893, 1892
1777, 1833, 1834, 1894, 1893
1778, 1834, 1835, 1895, 1894
1779, 1835, 1836, 1896, 1895
1780, 1836, 1837, 1897, 1896
1781, 1837, 1838, 1898, 1897
1782, 1838, 1839, 1899, 1898
1783, 1839, 1840, 1900, 1899
1784, 1840, 1841, 1901, 1900
1785, 1841, 1842, 1902, 1901
1786, 1842, 1843, 1903, 1902
1787, 1843, 1844, 1904, 1903
1788, 1844, 1845, 1905, 1904
1789, 1845, 1846, 1906, 1905
1790, 1846, 1847, 1907, 1906
1791, 1847, 1848, 1908, 1907
1792, 1848, 1849, 1909, 1908
1793, 1849, 1850, 1910, 1909
1794, 1850, 1851, 1911, 1910
1795, 1851, 1852, 1912, 1911
1796, 1852, 1853, 1913, 1912
1797, 1853, 1854, 1914, 1913
1798, 1854, 1855, 1915, 1914
1799, 1855, 1856, 1916, 1915
1800, 1856, 1857, 1917, 1916
1801, 1859, 1858, 1918, 1919
1802, 1858, 1860, 1920, 1918
1803, 1860, 1861, 1921, 1920
1804, 1861, 1862, 1922, 1921
1805, 1862, 1863, 1923, 1922
1806, 1863, 1864, 1924, 1923
1807, 1864, 1865, 1925, 1924
1808, 1865, 1866, 1926, 1925
1809, 1866, 1867, 1927, 1926
1810, 1867, 1868, 1928, 1927
1811, 1868, 1869, 1929, 1928
1812, 1869, 1870, 1930, 1929
1813, 1870, 1871, 1931, 1930
1814, 1871, 1872, 1932, 1931
1815, 1872, 1873, 1933, 1932
1816, 1873, 1874, 1934, 1933
1817, 1874, 1875, 1935, 1934
1818, 1875, 1876, 1936, 1935
1819, 1876, 1877, 1937, 1936
1820, 1877, 1878, 1938, 1937
1821, 1878, 1879, 1939, 1938
1822, 1879, 1880, 1940, 1939
1823, 1880, 1881, 1941, 1940
1824, 1881, 1882, 1942, 1941
1825, 1882, 1883, 1943, 1942
1826, 1883, 1884, 1944, 1943
1827, 1884, 1885, 1945, 1944
1828, 1885, 1886, 1946, 1945
1829, 1886, 1887, 1947, 1946
1830, 1887, 1888, 1948, 1947
1831, 1888, 1889, 1949, 1948
1832, 1889, 1890, 1950, 1949
1833, 1890, 1891, 1951, 1950
1834, 1891, 1892, 1952, 1951
1835, 1892, 1893, 1953, 1952
1836, 1893, 1894, 1954, 1953
1837, 1894, 1895, 1955, 1954
1838, 1895, 1896, 1956, 1955
1839, 1896, 1897, 1957, 1956
1840, 1897, 1898, 1958, 1957
1841, 1898, 1899, 1959, 1958
1842, 1899, 1900, 1960, 1959
1843, 1900, 1901, 1961, 1960
1844, 1901, 1902, 1962, 1961
1845, 1902, 1903, 1963, 1962
1846, 1903, 1904, 1964, 1963
1847, 1904, 1905, 1965, 1964
1848, 1905, 1906, 1966, 1965
1849, 1906, 1907, 1967, 1966
1850, 1907, 1908, 1968, 1967
1851, 1908, 1909, 1969, 1968
1852, 1909, 1910, 1970, 1969
1853, 1910, 1911, 1971, 1970
1854, 1911, 1912, 1972, 1971
1855, 1912, 1913, 1973, 1972
1856, 1913, 1914, 1974, 1973
1857, 1914, 1915, 1975, 1974
1858, 1915, 1916, 1976, 1975
1859, 1916, 1917, 1977, 1976
1860, 1919, 1918, 1978, 1979
1861, 1918, 1920, 1980, 1978
1862, 1920, 1921, 1981, 1980
1863, 1921, 1922, 1982, 1981
1864, 1922, 1923, 1983, 1982
1865, 1923, 1924, 1984, 1983
1866, 1924, 1925, 1985, 1984
1867, 1925, 1926, 1986, 1985
1868, 1926, 1927, 1987, 1986
1869, 1927, 1928, 1988, 1987
1870, 1928, 1929, 1989, 1988
1871, 1929, 1930, 1990, 1989
1872, 1930, 1931, 1991, 1990
1873, 1931, 1932, 1992, 1991
1874, 1932, 1933, 1993, 1992
1875, 1933, 1934, 1994, 1993
1876, 1934, 1935, 1995, 1994
1877, 1935, 1936, 1996, 1995
1878, 1936, 1937, 1997, 1996
1879, 1937, 1938, 1998, 1997
1880, 1938, 1939, 1999, 1998
1881, 1939, 1940, 2000, 1999
1882, 1940, 1941, 2001, 2000
1883, 1941, 1942, 2002, 2001
1884, 1942, 1943, 2003, 2002
1885, 1943, 1944, 2004, 2003
1886, 1944, 1945, 2005, 2004
1887, 1945, 1946, 2006, 2005
1888, 1946, 1947, 2007, 2006
1889, 1947, 1948, 2008, 2007
1890, 1948, 1949, 2009, 2008
1891, 1949, 1950, 2010, 2009
1892, 1950, 1951, 2011, 2010
1893, 1951, 1952, 2012, 2011
1894, 1952, 1953, 2013, 2012
1895, 1953, 1954, 2014, 2013
1896, 1954, 1955, 2015, 2014
1897, 1955, 1956, 2016, 2015
1898, 1956, 1957, 2017, 2016
1899, 1957, 1958, 2018, 2017
1900, 1958, 1959, 2019, 2018
1901, 1959, 1960, 2020, 2019
1902, 1960, 1961, 2021, 2020
1903, 1961, 1962, 2022, 2021
1904, 1962, 1963, 2023, 2022
1905, 1963, 1964, 2024, 2023
1906, 1964, 1965, 2025, 2024
1907, 1965, 1966, 2026, 2025
1908, 1966, 1967, 2027, 2026
1909, 1967, 1968, 2028, 2027
1910, 1968, 1969, 2029, 2028
1911, 1969, 1970, 2030, 2029
1912, 1970, 1971, 2031, 2030
1913, 1971, 1972, 2032, 2031
1914, 1972, 1973, 2033, 2032
1915, 1973, 1974, 2034, 2033
1916, 1974, 1975, 2035, 2034
1917, 1975, 1976, 2036, 2035
1918, 1976, 1977, 2037, 2036
1919, 1979, 1978, 2038, 2039
1920, 1978, 1980, 2040, 2038
1921, 1980, 1981, 2041, 2040
1922, 1981, 1982, 2042, 2041
1923, 1982, 1983, 2043, 2042
1924, 1983, 1984, 2044, 2043
1925, 1984, 1985, 2045, 2044
1926, 1985, 1986, 2046, 2045
1927, 1986, 1987, 2047, 2046
1928, 1987, 1988, 2048, 2047
1929, 1988, 1989, 2049, 2048
1930, 1989, 1990, 2050, 2049
1931, 1990, 1991, 2051, 2050
1932, 1991, 1992, 2052, 2051
1933, 1992, 1993, 2053, 2052
1934, 2022, 2023, 2054, 2055
1935, 2023, 2024, 2056, 2054
1936, 2024, 2025, 2057, 2056
1937, 2025, 2026, 2058, 2057
1938, 2026, 2027, 2059, 2058
1939, 2027, 2028, 2060, 2059
1940, 2028, 2029, 2061, 2060
1941, 2029, 2030, 2062, 2061
1942, 2030, 2031, 2063, 2062
1943, 2031, 2032, 2064, 2063
1944, 2032, 2033, 2065, 2064
1945, 2033, 2034, 2066, 2065
1946, 2034, 2035, 2067, 2066
1947, 2035, 2036, 2068, 2067
1948, 2036, 2037, 2069, 2068
1949, 2039, 2038, 2070, 2071
1950, 2038, 2040, 2072, 2070
1951, 2040, 2041, 2073, 2072
1952, 2041, 2042, 2074, 2073
1953, 2042, 2043, 2075, 2074
1954, 2043, 2044, 2076, 2075
1955, 2044, 2045, 2077, 2076
1956, 2045, 2046, 2078, 2077
1957, 2046, 2047, 2079, 2078
1958, 2047, 2048, 2080, 2079
1959, 2048, 2049, 2081, 2080
1960, 2049, 2050, 2082, 2081
1961, 2050, 2051, 2083, 2082
1962, 2051, 2052, 2084, 2083
1963, 2052, 2053, 2085, 2084
1964, 2054, 2056, 2086, 2087
1965, 2056, 2057, 2088, 2086
1966, 2057, 2058, 2089, 2088
1967, 2058, 2059, 2090, 2089
1968, 2059, 2060, 2091, 2090
1969, 2060, 2061, 2092, 2091
1970, 2061, 2062, 2093, 2092
1971, 2062, 2063, 2094, 2093
1972, 2063, 2064, 2095, 2094
1973, 2064, 2065, 2096, 2095
1974, 2065, 2066, 2097, 2096
1975, 2066, 2067, 2098, 2097
1976, 2067, 2068, 2099, 2098
1977, 2068, 2069, 2100, 2099
1978, 2071, 2070, 2101, 2102
1979, 2070, 2072, 2103, 2101
1980, 2072, 2073, 2104, 2103
1981, 2073, 2074, 2105, 2104
1982, 2074, 2075, 2106, 2105
1983, 2075, 2076, 2107, 2106
1984, 2076, 2077, 2108, 2107
1985, 2077, 2078, 2109, 2108
1986, 2078, 2079, 2110, 2109
1987, 2079, 2080, 2111, 2110
1988, 2080, 2081, 2112, 2111
1989, 2081, 2082, 2113, 2112
1990, 2082, 2083, 2114, 2113
1991, 2083, 2084, 2115, 2114
1992, 2084, 2085, 2116, 2115
1993, 2088, 2089, 2117, 2118
1994, 2089, 2090, 2119, 2117
1995, 2090, 2091, 2120, 2119
1996, 2091, 2092, 2121, 2120
1997, 2092, 2093, 2122, 2121
1998, 2093, 2094, 2123, 2122
1999, 2094, 2095, 2124, 2123
2000, 2095, 2096, 2125, 2124
2001, 2096, 2097, 2126, 2125
2002, 2097, 2098, 2127, 2126
2003, 2098, 2099, 2128, 2127
2004, 2099, 2100, 2129, 2128
2005, 2102, 2101, 2130, 2131
2006, 2101, 2103, 2132, 2130
2007, 2103, 2104, 2133, 2132
2008, 2104, 2105, 2134, 2133
2009, 2105, 2106, 2135, 2134
2010, 2106, 2107, 2136, 2135
2011, 2107, 2108, 2137, 2136
2012, 2108, 2109, 2138, 2137
2013, 2109, 2110, 2139, 2138
2014, 2110, 2111, 2140, 2139
2015, 2111, 2112, 2141, 2140
2016, 2112, 2113, 2142, 2141
2017, 2113, 2114, 2143, 2142
2018, 2114, 2115, 2144, 2143
2019, 2115, 2116, 2145, 2144
2020, 2117, 2119, 2146, 2147
2021, 2119, 2120, 2148, 2146
2022, 2120, 2121, 2149, 2148
2023, 2121, 2122, 2150, 2149
2024, 2122, 2123, 2151, 2150
2025, 2123, 2124, 2152, 2151
2026, 2124, 2125, 2153, 2152
2027, 2125, 2126, 2154, 2153
2028, 2126, 2127, 2155, 2154
2029, 2127, 2128, 2156, 2155
2030, 2128, 2129, 2157, 2156
2031, 2131, 2130, 2158, 2159
2032, 2130, 2132, 2160, 2158
2033, 2132, 2133, 2161, 2160
2034, 2133, 2134, 2162, 2161
2035, 2134, 2135, 2163, 2162
2036, 2135, 2136, 2164, 2163
2037, 2136, 2137, 2165, 2164
2038, 2137, 2138, 2166, 2165
2039, 2138, 2139, 2167, 2166
2040, 2139, 2140, 2168, 2167
2041, 2140, 2141, 2169, 2168
2042, 2141, 2142, 2170, 2169
2043, 2142, 2143, 2171, 2170
2044, 2143, 2144, 2172, 2171
2045, 2144, 2145, 2173, 2172
2046, 2146, 2148, 2174, 2175
2047, 2148, 2149, 2176, 2174
2048, 2149, 2150, 2177, 2176
2049, 2150, 2151, 2178, 2177
2050, 2151, 2152, 2179, 2178
2051, 2152, 2153, 2180, 2179
2052, 2153, 2154, 2181, 2180
2053, 2154, 2155, 2182, 2181
2054, 2155, 2156, 2183, 2182
2055, 2156, 2157, 2184, 2183
2056, 2159, 2158, 2185, 2186
2057, 2158, 2160, 2187, 2185
2058, 2160, 2161, 2188, 2187
2059, 2161, 2162, 2189, 2188
2060, 2162, 2163, 2190, 2189
2061, 2163, 2164, 2191, 2190
2062, 2164, 2165, 2192, 2191
2063, 2165, 2166, 2193, 2192
2064, 2166, 2167, 2194, 2193
2065, 2167, 2168, 2195, 2194
2066, 2168, 2169, 2196, 2195
2067, 2169, 2170, 2197, 2196
2068, 2170, 2171, 2198, 2197
2069, 2171, 2172, 2199, 2198
2070, 2176, 2177, 2200, 2201
2071, 2177, 2178, 2202, 2200
2072, 2178, 2179, 2203, 2202
2073, 2179, 2180, 2204, 2203
2074, 2180, 2181, 2205, 2204
2075, 2181, 2182, 2206, 2205
2076, 2182, 2183, 2207, 2206
2077, 2183, 2184, 2208, 2207
2078, 2186, 2185, 2209, 2210
2079, 2185, 2187, 2211, 2209
2080, 2187, 2188, 2212, 2211
2081, 2188, 2189, 2213, 2212
2082, 2189, 2190, 2214, 2213
2083, 2190, 2191, 2215, 2214
2084, 2191, 2192, 2216, 2215
2085, 2192, 2193, 2217, 2216
2086, 2193, 2194, 2218, 2217
2087, 2194, 2195, 2219, 2218
2088, 2195, 2196, 2220, 2219
2089, 2196, 2197, 2221, 2220
2090, 2197, 2198, 2222, 2221
2091, 2198, 2199, 2223, 2222
2092, 2200, 2202, 2224, 2225
2093, 2202, 2203, 2226, 2224
2094, 2203, 2204, 2227, 2226
2095, 2204, 2205, 2228, 2227
2096, 2205, 2206, 2229, 2228
2097, 2206, 2207, 2230, 2229
2098, 2207, 2208, 2231, 2230
2099, 2210, 2209, 2232, 2233
2100, 2209, 2211, 2234, 2232
2101, 2211, 2212, 2235, 2234
2102, 2212, 2213, 2236, 2235
2103, 2213, 2214, 2237, 2236
2104, 2214, 2215, 2238, 2237
2105, 2215, 2216, 2239, 2238
2106, 2216, 2217, 2240, 2239
2107, 2217, 2218, 2241, 2240
2108, 2218, 2219, 2242, 2241
2109, 2219, 2220, 2243, 2242
2110, 2220, 2221, 2244, 2243
2111, 2221, 2222, 2245, 2244
2112, 2222, 2223, 2246, 2245
2113, 2233, 2232, 2247, 2248
2114, 2232, 2234, 2249, 2247
2115, 2234, 2235, 2250, 2249
2116, 2235, 2236, 2251, 2250
2117, 2236, 2237, 2252, 2251
2118, 2237, 2238, 2253, 2252
2119, 2238, 2239, 2254, 2253
2120, 2239, 2240, 2255, 2254
2121, 2240, 2241, 2256, 2255
2122, 2241, 2242, 2257, 2256
2123, 2242, 2243, 2258, 2257
2124, 2243, 2244, 2259, 2258
2125, 2244, 2245, 2260, 2259
2126, 2245, 2246, 2261, 2260
2127, 2248, 2247, 2262, 2263
2128, 2247, 2249, 2264, 2262
2129, 2249, 2250, 2265, 2264
2130, 2250, 2251, 2266, 2265
2131, 2251, 2252, 2267, 2266
2132, 2252, 2253, 2268, 2267
2133, 2253, 2254, 2269, 2268
2134, 2254, 2255, 2270, 2269
2135, 2255, 2256, 2271, 2270
2136, 2256, 2257, 2272, 2271
2137, 2257, 2258, 2273, 2272
2138, 2258, 2259, 2274, 2273
2139, 2259, 2260, 2275, 2274
2140, 2260, 2261, 2276, 2275
2141, 2263, 2262, 2277, 2278
2142, 2262, 2264, 2279, 2277
2143, 2264, 2265, 2280, 2279
2144, 2265, 2266, 2281, 2280
2145, 2266, 2267, 2282, 2281
2146, 2267, 2268, 2283, 2282
2147, 2268, 2269, 2284, 2283
2148, 2269, 2270, 2285, 2284
2149, 2270, 2271, 2286, 2285
2150, 2271, 2272, 2287, 2286
2151, 2272, 2273, 2288, 2287
2152, 2273, 2274, 2289, 2288
2153, 2274, 2275, 2290, 2289
2154, 2275, 2276, 2291, 2290
2155, 2278, 2277, 2292, 2293
2156, 2277, 2279, 2294, 2292
2157, 2279, 2280, 2295, 2294
2158, 2280, 2281, 2296, 2295
2159, 2281, 2282, 2297, 2296
2160, 2282, 2283, 2298, 2297
2161, 2283, 2284, 2299, 2298
2162, 2284, 2285, 2300, 2299
2163, 2285, 2286, 2301, 2300
2164, 2286, 2287, 2302, 2301
2165, 2287, 2288, 2303, 2302
2166, 2288, 2289, 2304, 2303
2167, 2289, 2290, 2305, 2304
2168, 2290, 2291, 2306, 2305
2169, 2293, 2292, 2307, 2308
2170, 2292, 2294, 2309, 2307
2171, 2294, 2295, 2310, 2309
2172, 2295, 2296, 2311, 2310
2173, 2296, 2297, 2312, 2311
2174, 2297, 2298, 2313, 2312
2175, 2298, 2299, 2314, 2313
2176, 2299, 2300, 2315, 2314
2177, 2300, 2301, 2316, 2315
2178, 2301, 2302, 2317, 2316
2179, 2302, 2303, 2318, 2317
2180, 2303, 2304, 2319, 2318
2181, 2304, 2305, 2320, 2319
2182, 2305, 2306, 2321, 2320
2183, 2308, 2307, 2322, 2323
2184, 2307, 2309, 2324, 2322
2185, 2309, 2310, 2325, 2324
2186, 2310, 2311, 2326, 2325
2187, 2311, 2312, 2327, 2326
2188, 2312, 2313, 2328, 2327
2189, 2313, 2314, 2329, 2328
2190, 2314, 2315, 2330, 2329
2191, 2315, 2316, 2331, 2330
2192, 2316, 2317, 2332, 2331
2193, 2317, 2318, 2333, 2332
2194, 2318, 2319, 2334, 2333
2195, 2319, 2320, 2335, 2334
2196, 2320, 2321, 2336, 2335
2197, 2323, 2322, 2337, 2338
2198, 2322, 2324, 2339, 2337
2199, 2324, 2325, 2340, 2339
2200, 2325, 2326, 2341, 2340
2201, 2326, 2327, 2342, 2341
2202, 2327, 2328, 2343, 2342
2203, 2328, 2329, 2344, 2343
2204, 2329, 2330, 2345, 2344
2205, 2330, 2331, 2346, 2345
2206, 2331, 2332, 2347, 2346
2207, 2332, 2333, 2348, 2347
2208, 2333, 2334, 2349, 2348
2209, 2334, 2335, 2350, 2349
2210, 2335, 2336, 2351, 2350
2211, 2338, 2337, 2352, 2353
2212, 2337, 2339, 2354, 2352
2213, 2339, 2340, 2355, 2354
2214, 2340, 2341, 2356, 2355
2215, 2341, 2342, 2357, 2356
2216, 2342, 2343, 2358, 2357
2217, 2343, 2344, 2359, 2358
2218, 2344, 2345, 2360, 2359
2219, 2345, 2346, 2361, 2360
2220, 2346, 2347, 2362, 2361
2221, 2347, 2348, 2363, 2362
2222, 2348, 2349, 2364, 2363
2223, 2349, 2350, 2365, 2364
2224, 2350, 2351, 2366, 2365
2225, 2353, 2352, 2367, 2368
2226, 2352, 2354, 2369, 2367
2227, 2354, 2355, 2370, 2369
2228, 2355, 2356, 2371, 2370
2229, 2356, 2357, 2372, 2371
2230, 2357, 2358, 2373, 2372
2231, 2358, 2359, 2374, 2373
2232, 2359, 2360, 2375, 2374
2233, 2360, 2361, 2376, 2375
2234, 2361, 2362, 2377, 2376
2235, 2362, 2363, 2378, 2377
2236, 2363, 2364, 2379, 2378
2237, 2364, 2365, 2380, 2379
2238, 2365, 2366, 2381, 2380
2239, 2368, 2367, 2382, 2383
2240, 2367, 2369, 2384, 2382
2241, 2369, 2370, 2385, 2384
2242, 2370, 2371, 2386, 2385
2243, 2371, 2372, 2387, 2386
2244, 2372, 2373, 2388, 2387
2245, 2373, 2374, 2389, 2388
2246, 2374, 2375, 2390, 2389
2247, 2375, 2376, 2391, 2390
2248, 2376, 2377, 2392, 2391
2249, 2377, 2378, 2393, 2392
2250, 2378, 2379, 2394, 2393
2251, 2379, 2380, 2395, 2394
2252, 2383, 2382, 2396, 2397
2253, 2382, 2384, 2398, 2396
2254, 2384, 2385, 2399, 2398
2255, 2385, 2386, 2400, 2399
2256, 2386, 2387, 2401, 2400
2257, 2387, 2388, 2402, 2401
2258, 2388, 2389, 2403, 2402
2259, 2389, 2390, 2404, 2403
2260, 2390, 2391, 2405, 2404
2261, 2391, 2392, 2406, 2405
2262, 2392, 2393, 2407, 2406
2263, 2393, 2394, 2408, 2407
2264, 2394, 2395, 2409, 2408
2265, 2397, 2396, 2410, 2411
2266, 2396, 2398, 2412, 2410
2267, 2398, 2399, 2413, 2412
2268, 2399, 2400, 2414, 2413
2269, 2400, 2401, 2415, 2414
2270, 2401, 2402, 2416, 2415
2271, 2402, 2403, 2417, 2416
2272, 2403, 2404, 2418, 2417
2273, 2404, 2405, 2419, 2418
2274, 2405, 2406, 2420, 2419
2275, 2406, 2407, 2421, 2420
2276, 2407, 2408, 2422, 2421
2277, 2408, 2409, 2423, 2422
2278, 2411, 2410, 2424, 2425
2279, 2410, 2412, 2426, 2424
2280, 2412, 2413, 2427, 2426
2281, 2413, 2414, 2428, 2427
2282, 2414, 2415, 2429, 2428
2283, 2415, 2416, 2430, 2429
2284, 2416, 2417, 2431, 2430
2285, 2417, 2418, 2432, 2431
2286, 2418, 2419, 2433, 2432
2287, 2419, 2420, 2434, 2433
2288, 2420, 2421, 2435, 2434
2289, 2421, 2422, 2436, 2435
2290, 2422, 2423, 2437, 2436
2291, 2425, 2424, 2438, 2439
2292, 2424, 2426, 2440, 2438
2293, 2426, 2427, 2441, 2440
2294, 2427, 2428, 2442, 2441
2295, 2428, 2429, 2443, 2442
2296, 2429, 2430, 2444, 2443
2297, 2430, 2431, 2445, 2444
2298, 2431, 2432, 2446, 2445
2299, 2432, 2433, 2447, 2446
2300, 2433, 2434, 2448, 2447
2301, 2434, 2435, 2449, 2448
2302, 2435, 2436, 2450, 2449
2303, 2436, 2437, 2451, 2450
2304, 2439, 2438, 2452, 2453
2305, 2438, 2440, 2454, 2452
2306, 2440, 2441, 2455, 2454
2307, 2441, 2442, 2456, 2455
2308, 2442, 2443, 2457, 2456
2309, 2443, 2444, 2458, 2457
2310, 2444, 2445, 2459, 2458
2311, 2445, 2446, 2460, 2459
2312, 2446, 2447, 2461, 2460
2313, 2447, 2448, 2462, 2461
2314, 2448, 2449, 2463, 2462
2315, 2449, 2450, 2464, 2463
2316, 2450, 2451, 2465, 2464
2317, 2453, 2452, 2466, 2467
2318, 2452, 2454, 2468, 2466
2319, 2454, 2455, 2469, 2468
2320, 2455, 2456, 2470, 2469
2321, 2456, 2457, 2471, 2470
2322, 2457, 2458, 2472, 2471
2323, 2458, 2459, 2473, 2472
2324, 2459, 2460, 2474, 2473
2325, 2460, 2461, 2475, 2474
2326, 2461, 2462, 2476, 2475
2327, 2462, 2463, 2477, 2476
2328, 2463, 2464, 2478, 2477
2329, 2464, 2465, 2479, 2478
2330, 2467, 2466, 2480, 2481
2331, 2466, 2468, 2482, 2480
2332, 2468, 2469, 2483, 2482
2333, 2469, 2470, 2484, 2483
2334, 2470, 2471, 2485, 2484
2335, 2471, 2472, 2486, 2485
2336, 2472, 2473, 2487, 2486
2337, 2473, 2474, 2488, 2487
2338, 2474, 2475, 2489, 2488
2339, 2475, 2476, 2490, 2489
2340, 2476, 2477, 2491, 2490
2341, 2477, 2478, 2492, 2491
2342, 2478, 2479, 2493, 2492
2343, 2481, 2480, 2494, 2495
2344, 2480, 2482, 2496, 2494
2345, 2482, 2483, 2497, 2496
2346, 2483, 2484, 2498, 2497
2347, 2484, 2485, 2499, 2498
2348, 2485, 2486, 2500, 2499
2349, 2486, 2487, 2501, 2500
2350, 2487, 2488, 2502, 2501
2351, 2488, 2489, 2503, 2502
2352, 2489, 2490, 2504, 2503
2353, 2490, 2491, 2505, 2504
2354, 2491, 2492, 2506, 2505
2355, 2492, 2493, 2507, 2506
2356, 2495, 2494, 2508, 2509
2357, 2494, 2496, 2510, 2508
2358, 2496, 2497, 2511, 2510
2359, 2497, 2498, 2512, 2511
2360, 2498, 2499, 2513, 2512
2361, 2499, 2500, 2514, 2513
2362, 2500, 2501, 2515, 2514
2363, 2501, 2502, 2516, 2515
2364, 2502, 2503, 2517, 2516
2365, 2503, 2504, 2518, 2517
2366, 2504, 2505, 2519, 2518
2367, 2505, 2506, 2520, 2519
2368, 2509, 2508, 2521, 2522
2369, 2508, 2510, 2523, 2521
2370, 2510, 2511, 2524, 2523
2371, 2511, 2512, 2525, 2524
2372, 2512, 2513, 2526, 2525
2373, 2513, 2514, 2527, 2526
2374, 2514, 2515, 2528, 2527
2375, 2515, 2516, 2529, 2528
2376, 2516, 2517, 2530, 2529
2377, 2517, 2518, 2531, 2530
2378, 2518, 2519, 2532, 2531
2379, 2519, 2520, 2533, 2532
*NSET, NSET=STUBREAR
1
*NSET, NSET=NALL, GENERATE
1, 2533
*MATERIAL, NAME=DISC
*ELASTIC
1.970000e+11, 0.3000
*DENSITY
8000.0000
*EXPANSION, ZERO=300.0
1.100000e-05
*SOLID SECTION, ELSET=DISC, MATERIAL=DISC
*INITIAL CONDITIONS, TYPE=TEMPERATURE
NALL, 300.0
*BOUNDARY
STUBREAR, 2, 2, 0.0
** ---- step 1: centrifugal at MCS
*STEP
*STATIC
*DLOAD
DISC, CENTRIF, 6.354946e+07, 0., 0., 0., 0., 1., 0.
288, P2, -1.533522e+08
310, P2, -1.533522e+08
334, P2, -1.533522e+08
359, P2, -1.533522e+08
386, P2, -1.533522e+08
414, P2, -1.533522e+08
443, P2, -1.533522e+08
502, P2, -1.533522e+08
561, P2, -1.533522e+08
620, P2, -1.533522e+08
679, P2, -1.533522e+08
738, P2, -1.533522e+08
797, P2, -1.533522e+08
856, P2, -1.533522e+08
915, P2, -1.533522e+08
974, P2, -1.533522e+08
1033, P2, -1.533522e+08
1092, P2, -1.533522e+08
1151, P2, -1.533522e+08
1210, P2, -1.533522e+08
1269, P2, -1.533522e+08
1328, P2, -1.533522e+08
1387, P2, -1.533522e+08
1446, P2, -1.533522e+08
1505, P2, -1.533522e+08
1564, P2, -1.533522e+08
1623, P2, -1.533522e+08
1682, P2, -1.533522e+08
1741, P2, -1.533522e+08
1800, P2, -1.533522e+08
1859, P2, -1.533522e+08
1918, P2, -1.533522e+08
1948, P2, -1.533522e+08
1977, P2, -1.533522e+08
2004, P2, -1.533522e+08
2030, P2, -1.533522e+08
2055, P2, -1.533522e+08
2077, P2, -1.533522e+08
2098, P2, -1.533522e+08
*TEMPERATURE
NALL, 300.0
*NODE FILE
U
*EL FILE
S
*EL PRINT, ELSET=DISC
S
*END STEP
** ---- step 2: MCS + thermal field
*STEP
*STATIC
*DLOAD
DISC, CENTRIF, 6.354946e+07, 0., 0., 0., 0., 1., 0.
288, P2, -1.533522e+08
310, P2, -1.533522e+08
334, P2, -1.533522e+08
359, P2, -1.533522e+08
386, P2, -1.533522e+08
414, P2, -1.533522e+08
443, P2, -1.533522e+08
502, P2, -1.533522e+08
561, P2, -1.533522e+08
620, P2, -1.533522e+08
679, P2, -1.533522e+08
738, P2, -1.533522e+08
797, P2, -1.533522e+08
856, P2, -1.533522e+08
915, P2, -1.533522e+08
974, P2, -1.533522e+08
1033, P2, -1.533522e+08
1092, P2, -1.533522e+08
1151, P2, -1.533522e+08
1210, P2, -1.533522e+08
1269, P2, -1.533522e+08
1328, P2, -1.533522e+08
1387, P2, -1.533522e+08
1446, P2, -1.533522e+08
1505, P2, -1.533522e+08
1564, P2, -1.533522e+08
1623, P2, -1.533522e+08
1682, P2, -1.533522e+08
1741, P2, -1.533522e+08
1800, P2, -1.533522e+08
1859, P2, -1.533522e+08
1918, P2, -1.533522e+08
1948, P2, -1.533522e+08
1977, P2, -1.533522e+08
2004, P2, -1.533522e+08
2030, P2, -1.533522e+08
2055, P2, -1.533522e+08
2077, P2, -1.533522e+08
2098, P2, -1.533522e+08
*TEMPERATURE
1, 544.893
2, 544.990
3, 544.990
4, 544.893
5, 545.283
6, 545.283
7, 545.770
8, 545.770
9, 546.452
10, 546.452
11, 547.329
12, 547.329
13, 548.401
14, 548.401
15, 549.668
16, 549.668
17, 551.130
18, 551.130
19, 552.787
20, 552.787
21, 554.638
22, 554.638
23, 556.685
24, 556.685
25, 558.250
26, 558.250
27, 544.990
28, 544.893
29, 545.283
30, 545.770
31, 546.452
32, 547.329
33, 548.401
34, 549.668
35, 551.130
36, 552.787
37, 554.638
38, 556.685
39, 558.250
40, 544.990
41, 544.893
42, 545.283
43, 545.770
44, 546.452
45, 547.329
46, 548.401
47, 549.668
48, 551.130
49, 552.787
50, 554.638
51, 556.685
52, 558.250
53, 558.926
54, 558.926
55, 544.990
56, 544.893
57, 545.283
58, 545.770
59, 546.452
60, 547.329
61, 548.401
62, 549.668
63, 551.130
64, 552.787
65, 554.638
66, 556.685
67, 558.250
68, 558.926
69, 544.990
70, 544.893
71, 545.283
72, 545.770
73, 546.452
74, 547.329
75, 548.401
76, 549.668
77, 551.130
78, 552.787
79, 554.638
80, 556.685
81, 558.250
82, 558.926
83, 544.990
84, 544.893
85, 545.283
86, 545.770
87, 546.452
88, 547.329
89, 548.401
90, 549.668
91, 551.130
92, 552.787
93, 554.638
94, 556.685
95, 558.250
96, 558.926
97, 544.990
98, 544.893
99, 545.283
100, 545.770
101, 546.452
102, 547.329
103, 548.401
104, 549.668
105, 551.130
106, 552.787
107, 554.638
108, 556.685
109, 558.250
110, 558.926
111, 544.990
112, 544.893
113, 545.283
114, 545.770
115, 546.452
116, 547.329
117, 548.401
118, 549.668
119, 551.130
120, 552.787
121, 554.638
122, 556.685
123, 558.250
124, 558.926
125, 544.990
126, 544.893
127, 545.283
128, 545.770
129, 546.452
130, 547.329
131, 548.401
132, 549.668
133, 551.130
134, 552.787
135, 554.638
136, 556.685
137, 558.250
138, 558.926
139, 544.990
140, 544.893
141, 545.283
142, 545.770
143, 546.452
144, 547.329
145, 548.401
146, 549.668
147, 551.130
148, 552.787
149, 554.638
150, 556.685
151, 558.250
152, 558.926
153, 544.990
154, 544.893
155, 545.283
156, 545.770
157, 546.452
158, 547.329
159, 548.401
160, 549.668
161, 551.130
162, 552.787
163, 554.638
164, 556.685
165, 558.250
166, 558.926
167, 561.363
168, 561.363
169, 544.990
170, 544.893
171, 545.283
172, 545.770
173, 546.452
174, 547.329
175, 548.401
176, 549.668
177, 551.130
178, 552.787
179, 554.638
180, 556.685
181, 558.250
182, 558.926
183, 561.363
184, 544.990
185, 544.893
186, 545.283
187, 545.770
188, 546.452
189, 547.329
190, 548.401
191, 549.668
192, 551.130
193, 552.787
194, 554.638
195, 556.685
196, 558.250
197, 558.926
198, 561.363
199, 544.990
200, 544.893
201, 545.283
202, 545.770
203, 546.452
204, 547.329
205, 548.401
206, 549.668
207, 551.130
208, 552.787
209, 554.638
210, 556.685
211, 558.250
212, 558.926
213, 561.363
214, 544.990
215, 544.893
216, 545.283
217, 545.770
218, 546.452
219, 547.329
220, 548.401
221, 549.668
222, 551.130
223, 552.787
224, 554.638
225, 556.685
226, 558.250
227, 558.926
228, 561.363
229, 544.990
230, 544.893
231, 545.283
232, 545.770
233, 546.452
234, 547.329
235, 548.401
236, 549.668
237, 551.130
238, 552.787
239, 554.638
240, 556.685
241, 558.250
242, 558.926
243, 561.363
244, 544.990
245, 544.893
246, 545.283
247, 545.770
248, 546.452
249, 547.329
250, 548.401
251, 549.668
252, 551.130
253, 552.787
254, 554.638
255, 556.685
256, 558.250
257, 558.926
258, 561.363
259, 544.990
260, 544.893
261, 545.283
262, 545.770
263, 546.452
264, 547.329
265, 548.401
266, 549.668
267, 551.130
268, 552.787
269, 554.638
270, 556.685
271, 558.250
272, 558.926
273, 561.363
274, 544.990
275, 544.893
276, 545.283
277, 545.770
278, 546.452
279, 547.329
280, 548.401
281, 549.668
282, 551.130
283, 552.787
284, 554.638
285, 556.685
286, 558.250
287, 558.926
288, 561.363
289, 544.990
290, 544.893
291, 545.283
292, 545.770
293, 546.452
294, 547.329
295, 548.401
296, 549.668
297, 551.130
298, 552.787
299, 554.638
300, 556.685
301, 558.250
302, 558.926
303, 561.363
304, 544.990
305, 544.893
306, 545.283
307, 545.770
308, 546.452
309, 547.329
310, 548.401
311, 549.668
312, 551.130
313, 552.787
314, 554.638
315, 556.685
316, 558.250
317, 558.926
318, 561.363
319, 781.199
320, 788.527
321, 788.527
322, 781.199
323, 798.369
324, 798.369
325, 808.407
326, 808.407
327, 818.640
328, 818.640
329, 829.067
330, 829.067
331, 837.856
332, 837.856
333, 544.990
334, 544.893
335, 545.283
336, 545.770
337, 546.452
338, 547.329
339, 548.401
340, 549.668
341, 551.130
342, 552.787
343, 554.638
344, 556.685
345, 558.250
346, 558.926
347, 561.363
348, 769.426
349, 778.879
350, 778.879
351, 769.426
352, 781.199
353, 788.527
354, 798.369
355, 808.407
356, 818.640
357, 829.067
358, 837.856
359, 544.990
360, 544.893
361, 545.283
362, 545.770
363, 546.452
364, 547.329
365, 548.401
366, 549.668
367, 551.130
368, 552.787
369, 554.638
370, 556.685
371, 558.250
372, 558.926
373, 561.363
374, 563.203
375, 563.203
376, 760.168
377, 769.426
378, 760.168
379, 778.879
380, 781.199
381, 788.527
382, 798.369
383, 808.407
384, 818.640
385, 829.067
386, 837.856
387, 544.990
388, 544.893
389, 545.283
390, 545.770
391, 546.452
392, 547.329
393, 548.401
394, 549.668
395, 551.130
396, 552.787
397, 554.638
398, 556.685
399, 558.250
400, 558.926
401, 561.363
402, 563.203
403, 751.104
404, 760.168
405, 751.104
406, 769.426
407, 778.879
408, 781.199
409, 788.527
410, 798.369
411, 808.407
412, 818.640
413, 829.067
414, 837.856
415, 544.990
416, 544.893
417, 545.283
418, 545.770
419, 546.452
420, 547.329
421, 548.401
422, 549.668
423, 551.130
424, 552.787
425, 554.638
426, 556.685
427, 558.250
428, 558.926
429, 561.363
430, 563.203
431, 733.563
432, 742.236
433, 742.236
434, 733.563
435, 751.104
436, 760.168
437, 769.426
438, 778.879
439, 781.199
440, 788.527
441, 798.369
442, 808.407
443, 818.640
444, 829.067
445, 837.856
446, 544.990
447, 544.893
448, 545.283
449, 545.770
450, 546.452
451, 547.329
452, 548.401
453, 549.668
454, 551.130
455, 552.787
456, 554.638
457, 556.685
458, 558.250
459, 558.926
460, 561.363
461, 563.203
462, 725.084
463, 733.563
464, 725.084
465, 742.236
466, 751.104
467, 760.168
468, 769.426
469, 778.879
470, 781.199
471, 788.527
472, 798.369
473, 808.407
474, 818.640
475, 829.067
476, 837.856
477, 544.990
478, 544.893
479, 545.283
480, 545.770
481, 546.452
482, 547.329
483, 548.401
484, 549.668
485, 551.130
486, 552.787
487, 554.638
488, 556.685
489, 558.250
490, 558.926
491, 561.363
492, 563.203
493, 716.801
494, 725.084
495, 716.801
496, 733.563
497, 742.236
498, 751.104
499, 760.168
500, 769.426
501, 778.879
502, 781.199
503, 788.527
504, 798.369
505, 808.407
506, 818.640
507, 829.067
508, 837.856
509, 544.990
510, 544.893
511, 545.283
512, 545.770
513, 546.452
514, 547.329
515, 548.401
516, 549.668
517, 551.130
518, 552.787
519, 554.638
520, 556.685
521, 558.250
522, 558.926
523, 561.363
524, 563.203
525, 563.994
526, 563.994
527, 566.820
528, 566.820
529, 569.841
530, 569.841
531, 573.057
532, 573.057
533, 576.468
534, 576.468
535, 580.074
536, 580.074
537, 583.874
538, 583.874
539, 587.870
540, 587.870
541, 592.060
542, 592.060
543, 596.446
544, 596.446
545, 601.026
546, 601.026
547, 605.801
548, 605.801
549, 610.771
550, 610.771
551, 615.936
552, 615.936
553, 621.296
554, 621.296
555, 626.851
556, 626.851
557, 632.601
558, 632.601
559, 638.546
560, 638.546
561, 644.685
562, 644.685
563, 651.020
564, 651.020
565, 657.549
566, 657.549
567, 664.273
568, 664.273
569, 671.193
570, 671.193
571, 678.307
572, 678.307
573, 685.616
574, 685.616
575, 693.120
576, 693.120
577, 700.818
578, 700.818
579, 707.619
580, 707.619
581, 708.712
582, 708.712
583, 716.801
584, 725.084
585, 733.563
586, 742.236
587, 751.104
588, 760.168
589, 769.426
590, 778.879
591, 781.199
592, 788.527
593, 798.369
594, 808.407
595, 818.640
596, 829.067
597, 837.856
598, 544.990
599, 544.893
600, 545.283
601, 545.770
602, 546.452
603, 547.329
604, 548.401
605, 549.668
606, 551.130
607, 552.787
608, 554.638
609, 556.685
610, 558.250
611, 558.926
612, 561.363
613, 563.203
614, 563.994
615, 566.820
616, 569.841
617, 573.057
618, 576.468
619, 580.074
620, 583.874
621, 587.870
622, 592.060
623, 596.446
624, 601.026
625, 605.801
626, 610.771
627, 615.936
628, 621.296
629, 626.851
630, 632.601
631, 638.546
632, 644.685
633, 651.020
634, 657.549
635, 664.273
636, 671.193
637, 678.307
638, 685.616
639, 693.120
640, 700.818
641, 707.619
642, 708.712
643, 716.801
644, 725.084
645, 733.563
646, 742.236
647, 751.104
648, 760.168
649, 769.426
650, 778.879
651, 781.199
652, 788.527
653, 798.369
654, 808.407
655, 818.640
656, 829.067
657, 837.856
658, 544.990
659, 544.893
660, 545.283
661, 545.770
662, 546.452
663, 547.329
664, 548.401
665, 549.668
666, 551.130
667, 552.787
668, 554.638
669, 556.685
670, 558.250
671, 558.926
672, 561.363
673, 563.203
674, 563.994
675, 566.820
676, 569.841
677, 573.057
678, 576.468
679, 580.074
680, 583.874
681, 587.870
682, 592.060
683, 596.446
684, 601.026
685, 605.801
686, 610.771
687, 615.936
688, 621.296
689, 626.851
690, 632.601
691, 638.546
692, 644.685
693, 651.020
694, 657.549
695, 664.273
696, 671.193
697, 678.307
698, 685.616
699, 693.120
700, 700.818
701, 707.619
702, 708.712
703, 716.801
704, 725.084
705, 733.563
706, 742.236
707, 751.104
708, 760.168
709, 769.426
710, 778.879
711, 781.199
712, 788.527
713, 798.369
714, 808.407
715, 818.640
716, 829.067
717, 837.856
718, 544.990
719, 544.893
720, 545.283
721, 545.770
722, 546.452
723, 547.329
724, 548.401
725, 549.668
726, 551.130
727, 552.787
728, 554.638
729, 556.685
730, 558.250
731, 558.926
732, 561.363
733, 563.203
734, 563.994
735, 566.820
736, 569.841
737, 573.057
738, 576.468
739, 580.074
740, 583.874
741, 587.870
742, 592.060
743, 596.446
744, 601.026
745, 605.801
746, 610.771
747, 615.936
748, 621.296
749, 626.851
750, 632.601
751, 638.546
752, 644.685
753, 651.020
754, 657.549
755, 664.273
756, 671.193
757, 678.307
758, 685.616
759, 693.120
760, 700.818
761, 707.619
762, 708.712
763, 716.801
764, 725.084
765, 733.563
766, 742.236
767, 751.104
768, 760.168
769, 769.426
770, 778.879
771, 781.199
772, 788.527
773, 798.369
774, 808.407
775, 818.640
776, 829.067
777, 837.856
778, 544.990
779, 544.893
780, 545.283
781, 545.770
782, 546.452
783, 547.329
784, 548.401
785, 549.668
786, 551.130
787, 552.787
788, 554.638
789, 556.685
790, 558.250
791, 558.926
792, 561.363
793, 563.203
794, 563.994
795, 566.820
796, 569.841
797, 573.057
798, 576.468
799, 580.074
800, 583.874
801, 587.870
802, 592.060
803, 596.446
804, 601.026
805, 605.801
806, 610.771
807, 615.936
808, 621.296
809, 626.851
810, 632.601
811, 638.546
812, 644.685
813, 651.020
814, 657.549
815, 664.273
816, 671.193
817, 678.307
818, 685.616
819, 693.120
820, 700.818
821, 707.619
822, 708.712
823, 716.801
824, 725.084
825, 733.563
826, 742.236
827, 751.104
828, 760.168
829, 769.426
830, 778.879
831, 781.199
832, 788.527
833, 798.369
834, 808.407
835, 818.640
836, 829.067
837, 837.856
838, 544.990
839, 544.893
840, 545.283
841, 545.770
842, 546.452
843, 547.329
844, 548.401
845, 549.668
846, 551.130
847, 552.787
848, 554.638
849, 556.685
850, 558.250
851, 558.926
852, 561.363
853, 563.203
854, 563.994
855, 566.820
856, 569.841
857, 573.057
858, 576.468
859, 580.074
860, 583.874
861, 587.870
862, 592.060
863, 596.446
864, 601.026
865, 605.801
866, 610.771
867, 615.936
868, 621.296
869, 626.851
870, 632.601
871, 638.546
872, 644.685
873, 651.020
874, 657.549
875, 664.273
876, 671.193
877, 678.307
878, 685.616
879, 693.120
880, 700.818
881, 707.619
882, 708.712
883, 716.801
884, 725.084
885, 733.563
886, 742.236
887, 751.104
888, 760.168
889, 769.426
890, 778.879
891, 781.199
892, 788.527
893, 798.369
894, 808.407
895, 818.640
896, 829.067
897, 837.856
898, 544.990
899, 544.893
900, 545.283
901, 545.770
902, 546.452
903, 547.329
904, 548.401
905, 549.668
906, 551.130
907, 552.787
908, 554.638
909, 556.685
910, 558.250
911, 558.926
912, 561.363
913, 563.203
914, 563.994
915, 566.820
916, 569.841
917, 573.057
918, 576.468
919, 580.074
920, 583.874
921, 587.870
922, 592.060
923, 596.446
924, 601.026
925, 605.801
926, 610.771
927, 615.936
928, 621.296
929, 626.851
930, 632.601
931, 638.546
932, 644.685
933, 651.020
934, 657.549
935, 664.273
936, 671.193
937, 678.307
938, 685.616
939, 693.120
940, 700.818
941, 707.619
942, 708.712
943, 716.801
944, 725.084
945, 733.563
946, 742.236
947, 751.104
948, 760.168
949, 769.426
950, 778.879
951, 781.199
952, 788.527
953, 798.369
954, 808.407
955, 818.640
956, 829.067
957, 837.856
958, 544.990
959, 544.893
960, 545.283
961, 545.770
962, 546.452
963, 547.329
964, 548.401
965, 549.668
966, 551.130
967, 552.787
968, 554.638
969, 556.685
970, 558.250
971, 558.926
972, 561.363
973, 563.203
974, 563.994
975, 566.820
976, 569.841
977, 573.057
978, 576.468
979, 580.074
980, 583.874
981, 587.870
982, 592.060
983, 596.446
984, 601.026
985, 605.801
986, 610.771
987, 615.936
988, 621.296
989, 626.851
990, 632.601
991, 638.546
992, 644.685
993, 651.020
994, 657.549
995, 664.273
996, 671.193
997, 678.307
998, 685.616
999, 693.120
1000, 700.818
1001, 707.619
1002, 708.712
1003, 716.801
1004, 725.084
1005, 733.563
1006, 742.236
1007, 751.104
1008, 760.168
1009, 769.426
1010, 778.879
1011, 781.199
1012, 788.527
1013, 798.369
1014, 808.407
1015, 818.640
1016, 829.067
1017, 837.856
1018, 544.990
1019, 544.893
1020, 545.283
1021, 545.770
1022, 546.452
1023, 547.329
1024, 548.401
1025, 549.668
1026, 551.130
1027, 552.787
1028, 554.638
1029, 556.685
1030, 558.250
1031, 558.926
1032, 561.363
1033, 563.203
1034, 563.994
1035, 566.820
1036, 569.841
1037, 573.057
1038, 576.468
1039, 580.074
1040, 583.874
1041, 587.870
1042, 592.060
1043, 596.446
1044, 601.026
1045, 605.801
1046, 610.771
1047, 615.936
1048, 621.296
1049, 626.851
1050, 632.601
1051, 638.546
1052, 644.685
1053, 651.020
1054, 657.549
1055, 664.273
1056, 671.193
1057, 678.307
1058, 685.616
1059, 693.120
1060, 700.818
1061, 707.619
1062, 708.712
1063, 716.801
1064, 725.084
1065, 733.563
1066, 742.236
1067, 751.104
1068, 760.168
1069, 769.426
1070, 778.879
1071, 781.199
1072, 788.527
1073, 798.369
1074, 808.407
1075, 818.640
1076, 829.067
1077, 837.856
1078, 544.990
1079, 544.893
1080, 545.283
1081, 545.770
1082, 546.452
1083, 547.329
1084, 548.401
1085, 549.668
1086, 551.130
1087, 552.787
1088, 554.638
1089, 556.685
1090, 558.250
1091, 558.926
1092, 561.363
1093, 563.203
1094, 563.994
1095, 566.820
1096, 569.841
1097, 573.057
1098, 576.468
1099, 580.074
1100, 583.874
1101, 587.870
1102, 592.060
1103, 596.446
1104, 601.026
1105, 605.801
1106, 610.771
1107, 615.936
1108, 621.296
1109, 626.851
1110, 632.601
1111, 638.546
1112, 644.685
1113, 651.020
1114, 657.549
1115, 664.273
1116, 671.193
1117, 678.307
1118, 685.616
1119, 693.120
1120, 700.818
1121, 707.619
1122, 708.712
1123, 716.801
1124, 725.084
1125, 733.563
1126, 742.236
1127, 751.104
1128, 760.168
1129, 769.426
1130, 778.879
1131, 781.199
1132, 788.527
1133, 798.369
1134, 808.407
1135, 818.640
1136, 829.067
1137, 837.856
1138, 544.990
1139, 544.893
1140, 545.283
1141, 545.770
1142, 546.452
1143, 547.329
1144, 548.401
1145, 549.668
1146, 551.130
1147, 552.787
1148, 554.638
1149, 556.685
1150, 558.250
1151, 558.926
1152, 561.363
1153, 563.203
1154, 563.994
1155, 566.820
1156, 569.841
1157, 573.057
1158, 576.468
1159, 580.074
1160, 583.874
1161, 587.870
1162, 592.060
1163, 596.446
1164, 601.026
1165, 605.801
1166, 610.771
1167, 615.936
1168, 621.296
1169, 626.851
1170, 632.601
1171, 638.546
1172, 644.685
1173, 651.020
1174, 657.549
1175, 664.273
1176, 671.193
1177, 678.307
1178, 685.616
1179, 693.120
1180, 700.818
1181, 707.619
1182, 708.712
1183, 716.801
1184, 725.084
1185, 733.563
1186, 742.236
1187, 751.104
1188, 760.168
1189, 769.426
1190, 778.879
1191, 781.199
1192, 788.527
1193, 798.369
1194, 808.407
1195, 818.640
1196, 829.067
1197, 837.856
1198, 544.990
1199, 544.893
1200, 545.283
1201, 545.770
1202, 546.452
1203, 547.329
1204, 548.401
1205, 549.668
1206, 551.130
1207, 552.787
1208, 554.638
1209, 556.685
1210, 558.250
1211, 558.926
1212, 561.363
1213, 563.203
1214, 563.994
1215, 566.820
1216, 569.841
1217, 573.057
1218, 576.468
1219, 580.074
1220, 583.874
1221, 587.870
1222, 592.060
1223, 596.446
1224, 601.026
1225, 605.801
1226, 610.771
1227, 615.936
1228, 621.296
1229, 626.851
1230, 632.601
1231, 638.546
1232, 644.685
1233, 651.020
1234, 657.549
1235, 664.273
1236, 671.193
1237, 678.307
1238, 685.616
1239, 693.120
1240, 700.818
1241, 707.619
1242, 708.712
1243, 716.801
1244, 725.084
1245, 733.563
1246, 742.236
1247, 751.104
1248, 760.168
1249, 769.426
1250, 778.879
1251, 781.199
1252, 788.527
1253, 798.369
1254, 808.407
1255, 818.640
1256, 829.067
1257, 837.856
1258, 544.990
1259, 544.893
1260, 545.283
1261, 545.770
1262, 546.452
1263, 547.329
1264, 548.401
1265, 549.668
1266, 551.130
1267, 552.787
1268, 554.638
1269, 556.685
1270, 558.250
1271, 558.926
1272, 561.363
1273, 563.203
1274, 563.994
1275, 566.820
1276, 569.841
1277, 573.057
1278, 576.468
1279, 580.074
1280, 583.874
1281, 587.870
1282, 592.060
1283, 596.446
1284, 601.026
1285, 605.801
1286, 610.771
1287, 615.936
1288, 621.296
1289, 626.851
1290, 632.601
1291, 638.546
1292, 644.685
1293, 651.020
1294, 657.549
1295, 664.273
1296, 671.193
1297, 678.307
1298, 685.616
1299, 693.120
1300, 700.818
1301, 707.619
1302, 708.712
1303, 716.801
1304, 725.084
1305, 733.563
1306, 742.236
1307, 751.104
1308, 760.168
1309, 769.426
1310, 778.879
1311, 781.199
1312, 788.527
1313, 798.369
1314, 808.407
1315, 818.640
1316, 829.067
1317, 837.856
1318, 544.990
1319, 544.893
1320, 545.283
1321, 545.770
1322, 546.452
1323, 547.329
1324, 548.401
1325, 549.668
1326, 551.130
1327, 552.787
1328, 554.638
1329, 556.685
1330, 558.250
1331, 558.926
1332, 561.363
1333, 563.203
1334, 563.994
1335, 566.820
1336, 569.841
1337, 573.057
1338, 576.468
1339, 580.074
1340, 583.874
1341, 587.870
1342, 592.060
1343, 596.446
1344, 601.026
1345, 605.801
1346, 610.771
1347, 615.936
1348, 621.296
1349, 626.851
1350, 632.601
1351, 638.546
1352, 644.685
1353, 651.020
1354, 657.549
1355, 664.273
1356, 671.193
1357, 678.307
1358, 685.616
1359, 693.120
1360, 700.818
1361, 707.619
1362, 708.712
1363, 716.801
1364, 725.084
1365, 733.563
1366, 742.236
1367, 751.104
1368, 760.168
1369, 769.426
1370, 778.879
1371, 781.199
1372, 788.527
1373, 798.369
1374, 808.407
1375, 818.640
1376, 829.067
1377, 837.856
1378, 544.990
1379, 544.893
1380, 545.283
1381, 545.770
1382, 546.452
1383, 547.329
1384, 548.401
1385, 549.668
1386, 551.130
1387, 552.787
1388, 554.638
1389, 556.685
1390, 558.250
1391, 558.926
1392, 561.363
1393, 563.203
1394, 563.994
1395, 566.820
1396, 569.841
1397, 573.057
1398, 576.468
1399, 580.074
1400, 583.874
1401, 587.870
1402, 592.060
1403, 596.446
1404, 601.026
1405, 605.801
1406, 610.771
1407, 615.936
1408, 621.296
1409, 626.851
1410, 632.601
1411, 638.546
1412, 644.685
1413, 651.020
1414, 657.549
1415, 664.273
1416, 671.193
1417, 678.307
1418, 685.616
1419, 693.120
1420, 700.818
1421, 707.619
1422, 708.712
1423, 716.801
1424, 725.084
1425, 733.563
1426, 742.236
1427, 751.104
1428, 760.168
1429, 769.426
1430, 778.879
1431, 781.199
1432, 788.527
1433, 798.369
1434, 808.407
1435, 818.640
1436, 829.067
1437, 837.856
1438, 544.990
1439, 544.893
1440, 545.283
1441, 545.770
1442, 546.452
1443, 547.329
1444, 548.401
1445, 549.668
1446, 551.130
1447, 552.787
1448, 554.638
1449, 556.685
1450, 558.250
1451, 558.926
1452, 561.363
1453, 563.203
1454, 563.994
1455, 566.820
1456, 569.841
1457, 573.057
1458, 576.468
1459, 580.074
1460, 583.874
1461, 587.870
1462, 592.060
1463, 596.446
1464, 601.026
1465, 605.801
1466, 610.771
1467, 615.936
1468, 621.296
1469, 626.851
1470, 632.601
1471, 638.546
1472, 644.685
1473, 651.020
1474, 657.549
1475, 664.273
1476, 671.193
1477, 678.307
1478, 685.616
1479, 693.120
1480, 700.818
1481, 707.619
1482, 708.712
1483, 716.801
1484, 725.084
1485, 733.563
1486, 742.236
1487, 751.104
1488, 760.168
1489, 769.426
1490, 778.879
1491, 781.199
1492, 788.527
1493, 798.369
1494, 808.407
1495, 818.640
1496, 829.067
1497, 837.856
1498, 544.990
1499, 544.893
1500, 545.283
1501, 545.770
1502, 546.452
1503, 547.329
1504, 548.401
1505, 549.668
1506, 551.130
1507, 552.787
1508, 554.638
1509, 556.685
1510, 558.250
1511, 558.926
1512, 561.363
1513, 563.203
1514, 563.994
1515, 566.820
1516, 569.841
1517, 573.057
1518, 576.468
1519, 580.074
1520, 583.874
1521, 587.870
1522, 592.060
1523, 596.446
1524, 601.026
1525, 605.801
1526, 610.771
1527, 615.936
1528, 621.296
1529, 626.851
1530, 632.601
1531, 638.546
1532, 644.685
1533, 651.020
1534, 657.549
1535, 664.273
1536, 671.193
1537, 678.307
1538, 685.616
1539, 693.120
1540, 700.818
1541, 707.619
1542, 708.712
1543, 716.801
1544, 725.084
1545, 733.563
1546, 742.236
1547, 751.104
1548, 760.168
1549, 769.426
1550, 778.879
1551, 781.199
1552, 788.527
1553, 798.369
1554, 808.407
1555, 818.640
1556, 829.067
1557, 837.856
1558, 544.990
1559, 544.893
1560, 545.283
1561, 545.770
1562, 546.452
1563, 547.329
1564, 548.401
1565, 549.668
1566, 551.130
1567, 552.787
1568, 554.638
1569, 556.685
1570, 558.250
1571, 558.926
1572, 561.363
1573, 563.203
1574, 563.994
1575, 566.820
1576, 569.841
1577, 573.057
1578, 576.468
1579, 580.074
1580, 583.874
1581, 587.870
1582, 592.060
1583, 596.446
1584, 601.026
1585, 605.801
1586, 610.771
1587, 615.936
1588, 621.296
1589, 626.851
1590, 632.601
1591, 638.546
1592, 644.685
1593, 651.020
1594, 657.549
1595, 664.273
1596, 671.193
1597, 678.307
1598, 685.616
1599, 693.120
1600, 700.818
1601, 707.619
1602, 708.712
1603, 716.801
1604, 725.084
1605, 733.563
1606, 742.236
1607, 751.104
1608, 760.168
1609, 769.426
1610, 778.879
1611, 781.199
1612, 788.527
1613, 798.369
1614, 808.407
1615, 818.640
1616, 829.067
1617, 837.856
1618, 544.990
1619, 544.893
1620, 545.283
1621, 545.770
1622, 546.452
1623, 547.329
1624, 548.401
1625, 549.668
1626, 551.130
1627, 552.787
1628, 554.638
1629, 556.685
1630, 558.250
1631, 558.926
1632, 561.363
1633, 563.203
1634, 563.994
1635, 566.820
1636, 569.841
1637, 573.057
1638, 576.468
1639, 580.074
1640, 583.874
1641, 587.870
1642, 592.060
1643, 596.446
1644, 601.026
1645, 605.801
1646, 610.771
1647, 615.936
1648, 621.296
1649, 626.851
1650, 632.601
1651, 638.546
1652, 644.685
1653, 651.020
1654, 657.549
1655, 664.273
1656, 671.193
1657, 678.307
1658, 685.616
1659, 693.120
1660, 700.818
1661, 707.619
1662, 708.712
1663, 716.801
1664, 725.084
1665, 733.563
1666, 742.236
1667, 751.104
1668, 760.168
1669, 769.426
1670, 778.879
1671, 781.199
1672, 788.527
1673, 798.369
1674, 808.407
1675, 818.640
1676, 829.067
1677, 837.856
1678, 544.990
1679, 544.893
1680, 545.283
1681, 545.770
1682, 546.452
1683, 547.329
1684, 548.401
1685, 549.668
1686, 551.130
1687, 552.787
1688, 554.638
1689, 556.685
1690, 558.250
1691, 558.926
1692, 561.363
1693, 563.203
1694, 563.994
1695, 566.820
1696, 569.841
1697, 573.057
1698, 576.468
1699, 580.074
1700, 583.874
1701, 587.870
1702, 592.060
1703, 596.446
1704, 601.026
1705, 605.801
1706, 610.771
1707, 615.936
1708, 621.296
1709, 626.851
1710, 632.601
1711, 638.546
1712, 644.685
1713, 651.020
1714, 657.549
1715, 664.273
1716, 671.193
1717, 678.307
1718, 685.616
1719, 693.120
1720, 700.818
1721, 707.619
1722, 708.712
1723, 716.801
1724, 725.084
1725, 733.563
1726, 742.236
1727, 751.104
1728, 760.168
1729, 769.426
1730, 778.879
1731, 781.199
1732, 788.527
1733, 798.369
1734, 808.407
1735, 818.640
1736, 829.067
1737, 837.856
1738, 544.990
1739, 544.893
1740, 545.283
1741, 545.770
1742, 546.452
1743, 547.329
1744, 548.401
1745, 549.668
1746, 551.130
1747, 552.787
1748, 554.638
1749, 556.685
1750, 558.250
1751, 558.926
1752, 561.363
1753, 563.203
1754, 563.994
1755, 566.820
1756, 569.841
1757, 573.057
1758, 576.468
1759, 580.074
1760, 583.874
1761, 587.870
1762, 592.060
1763, 596.446
1764, 601.026
1765, 605.801
1766, 610.771
1767, 615.936
1768, 621.296
1769, 626.851
1770, 632.601
1771, 638.546
1772, 644.685
1773, 651.020
1774, 657.549
1775, 664.273
1776, 671.193
1777, 678.307
1778, 685.616
1779, 693.120
1780, 700.818
1781, 707.619
1782, 708.712
1783, 716.801
1784, 725.084
1785, 733.563
1786, 742.236
1787, 751.104
1788, 760.168
1789, 769.426
1790, 778.879
1791, 781.199
1792, 788.527
1793, 798.369
1794, 808.407
1795, 818.640
1796, 829.067
1797, 837.856
1798, 544.990
1799, 544.893
1800, 545.283
1801, 545.770
1802, 546.452
1803, 547.329
1804, 548.401
1805, 549.668
1806, 551.130
1807, 552.787
1808, 554.638
1809, 556.685
1810, 558.250
1811, 558.926
1812, 561.363
1813, 563.203
1814, 563.994
1815, 566.820
1816, 569.841
1817, 573.057
1818, 576.468
1819, 580.074
1820, 583.874
1821, 587.870
1822, 592.060
1823, 596.446
1824, 601.026
1825, 605.801
1826, 610.771
1827, 615.936
1828, 621.296
1829, 626.851
1830, 632.601
1831, 638.546
1832, 644.685
1833, 651.020
1834, 657.549
1835, 664.273
1836, 671.193
1837, 678.307
1838, 685.616
1839, 693.120
1840, 700.818
1841, 707.619
1842, 708.712
1843, 716.801
1844, 725.084
1845, 733.563
1846, 742.236
1847, 751.104
1848, 760.168
1849, 769.426
1850, 778.879
1851, 781.199
1852, 788.527
1853, 798.369
1854, 808.407
1855, 818.640
1856, 829.067
1857, 837.856
1858, 544.990
1859, 544.893
1860, 545.283
1861, 545.770
1862, 546.452
1863, 547.329
1864, 548.401
1865, 549.668
1866, 551.130
1867, 552.787
1868, 554.638
1869, 556.685
1870, 558.250
1871, 558.926
1872, 561.363
1873, 563.203
1874, 563.994
1875, 566.820
1876, 569.841
1877, 573.057
1878, 576.468
1879, 580.074
1880, 583.874
1881, 587.870
1882, 592.060
1883, 596.446
1884, 601.026
1885, 605.801
1886, 610.771
1887, 615.936
1888, 621.296
1889, 626.851
1890, 632.601
1891, 638.546
1892, 644.685
1893, 651.020
1894, 657.549
1895, 664.273
1896, 671.193
1897, 678.307
1898, 685.616
1899, 693.120
1900, 700.818
1901, 707.619
1902, 708.712
1903, 716.801
1904, 725.084
1905, 733.563
1906, 742.236
1907, 751.104
1908, 760.168
1909, 769.426
1910, 778.879
1911, 781.199
1912, 788.527
1913, 798.369
1914, 808.407
1915, 818.640
1916, 829.067
1917, 837.856
1918, 544.990
1919, 544.893
1920, 545.283
1921, 545.770
1922, 546.452
1923, 547.329
1924, 548.401
1925, 549.668
1926, 551.130
1927, 552.787
1928, 554.638
1929, 556.685
1930, 558.250
1931, 558.926
1932, 561.363
1933, 563.203
1934, 563.994
1935, 566.820
1936, 569.841
1937, 573.057
1938, 576.468
1939, 580.074
1940, 583.874
1941, 587.870
1942, 592.060
1943, 596.446
1944, 601.026
1945, 605.801
1946, 610.771
1947, 615.936
1948, 621.296
1949, 626.851
1950, 632.601
1951, 638.546
1952, 644.685
1953, 651.020
1954, 657.549
1955, 664.273
1956, 671.193
1957, 678.307
1958, 685.616
1959, 693.120
1960, 700.818
1961, 707.619
1962, 708.712
1963, 716.801
1964, 725.084
1965, 733.563
1966, 742.236
1967, 751.104
1968, 760.168
1969, 769.426
1970, 778.879
1971, 781.199
1972, 788.527
1973, 798.369
1974, 808.407
1975, 818.640
1976, 829.067
1977, 837.856
1978, 544.990
1979, 544.893
1980, 545.283
1981, 545.770
1982, 546.452
1983, 547.329
1984, 548.401
1985, 549.668
1986, 551.130
1987, 552.787
1988, 554.638
1989, 556.685
1990, 558.250
1991, 558.926
1992, 561.363
1993, 563.203
1994, 563.994
1995, 566.820
1996, 569.841
1997, 573.057
1998, 576.468
1999, 580.074
2000, 583.874
2001, 587.870
2002, 592.060
2003, 596.446
2004, 601.026
2005, 605.801
2006, 610.771
2007, 615.936
2008, 621.296
2009, 626.851
2010, 632.601
2011, 638.546
2012, 644.685
2013, 651.020
2014, 657.549
2015, 664.273
2016, 671.193
2017, 678.307
2018, 685.616
2019, 693.120
2020, 700.818
2021, 707.619
2022, 708.712
2023, 716.801
2024, 725.084
2025, 733.563
2026, 742.236
2027, 751.104
2028, 760.168
2029, 769.426
2030, 778.879
2031, 781.199
2032, 788.527
2033, 798.369
2034, 808.407
2035, 818.640
2036, 829.067
2037, 837.856
2038, 544.990
2039, 544.893
2040, 545.283
2041, 545.770
2042, 546.452
2043, 547.329
2044, 548.401
2045, 549.668
2046, 551.130
2047, 552.787
2048, 554.638
2049, 556.685
2050, 558.250
2051, 558.926
2052, 561.363
2053, 563.203
2054, 716.801
2055, 708.712
2056, 725.084
2057, 733.563
2058, 742.236
2059, 751.104
2060, 760.168
2061, 769.426
2062, 778.879
2063, 781.199
2064, 788.527
2065, 798.369
2066, 808.407
2067, 818.640
2068, 829.067
2069, 837.856
2070, 544.990
2071, 544.893
2072, 545.283
2073, 545.770
2074, 546.452
2075, 547.329
2076, 548.401
2077, 549.668
2078, 551.130
2079, 552.787
2080, 554.638
2081, 556.685
2082, 558.250
2083, 558.926
2084, 561.363
2085, 563.203
2086, 725.084
2087, 716.801
2088, 733.563
2089, 742.236
2090, 751.104
2091, 760.168
2092, 769.426
2093, 778.879
2094, 781.199
2095, 788.527
2096, 798.369
2097, 808.407
2098, 818.640
2099, 829.067
2100, 837.856
2101, 544.990
2102, 544.893
2103, 545.283
2104, 545.770
2105, 546.452
2106, 547.329
2107, 548.401
2108, 549.668
2109, 551.130
2110, 552.787
2111, 554.638
2112, 556.685
2113, 558.250
2114, 558.926
2115, 561.363
2116, 563.203
2117, 742.236
2118, 733.563
2119, 751.104
2120, 760.168
2121, 769.426
2122, 778.879
2123, 781.199
2124, 788.527
2125, 798.369
2126, 808.407
2127, 818.640
2128, 829.067
2129, 837.856
2130, 544.990
2131, 544.893
2132, 545.283
2133, 545.770
2134, 546.452
2135, 547.329
2136, 548.401
2137, 549.668
2138, 551.130
2139, 552.787
2140, 554.638
2141, 556.685
2142, 558.250
2143, 558.926
2144, 561.363
2145, 563.203
2146, 751.104
2147, 742.236
2148, 760.168
2149, 769.426
2150, 778.879
2151, 781.199
2152, 788.527
2153, 798.369
2154, 808.407
2155, 818.640
2156, 829.067
2157, 837.856
2158, 544.990
2159, 544.893
2160, 545.283
2161, 545.770
2162, 546.452
2163, 547.329
2164, 548.401
2165, 549.668
2166, 551.130
2167, 552.787
2168, 554.638
2169, 556.685
2170, 558.250
2171, 558.926
2172, 561.363
2173, 563.203
2174, 760.168
2175, 751.104
2176, 769.426
2177, 778.879
2178, 781.199
2179, 788.527
2180, 798.369
2181, 808.407
2182, 818.640
2183, 829.067
2184, 837.856
2185, 544.990
2186, 544.893
2187, 545.283
2188, 545.770
2189, 546.452
2190, 547.329
2191, 548.401
2192, 549.668
2193, 551.130
2194, 552.787
2195, 554.638
2196, 556.685
2197, 558.250
2198, 558.926
2199, 561.363
2200, 778.879
2201, 769.426
2202, 781.199
2203, 788.527
2204, 798.369
2205, 808.407
2206, 818.640
2207, 829.067
2208, 837.856
2209, 544.990
2210, 544.893
2211, 545.283
2212, 545.770
2213, 546.452
2214, 547.329
2215, 548.401
2216, 549.668
2217, 551.130
2218, 552.787
2219, 554.638
2220, 556.685
2221, 558.250
2222, 558.926
2223, 561.363
2224, 781.199
2225, 778.879
2226, 788.527
2227, 798.369
2228, 808.407
2229, 818.640
2230, 829.067
2231, 837.856
2232, 544.990
2233, 544.893
2234, 545.283
2235, 545.770
2236, 546.452
2237, 547.329
2238, 548.401
2239, 549.668
2240, 551.130
2241, 552.787
2242, 554.638
2243, 556.685
2244, 558.250
2245, 558.926
2246, 561.363
2247, 544.990
2248, 544.893
2249, 545.283
2250, 545.770
2251, 546.452
2252, 547.329
2253, 548.401
2254, 549.668
2255, 551.130
2256, 552.787
2257, 554.638
2258, 556.685
2259, 558.250
2260, 558.926
2261, 561.363
2262, 544.990
2263, 544.893
2264, 545.283
2265, 545.770
2266, 546.452
2267, 547.329
2268, 548.401
2269, 549.668
2270, 551.130
2271, 552.787
2272, 554.638
2273, 556.685
2274, 558.250
2275, 558.926
2276, 561.363
2277, 544.990
2278, 544.893
2279, 545.283
2280, 545.770
2281, 546.452
2282, 547.329
2283, 548.401
2284, 549.668
2285, 551.130
2286, 552.787
2287, 554.638
2288, 556.685
2289, 558.250
2290, 558.926
2291, 561.363
2292, 544.990
2293, 544.893
2294, 545.283
2295, 545.770
2296, 546.452
2297, 547.329
2298, 548.401
2299, 549.668
2300, 551.130
2301, 552.787
2302, 554.638
2303, 556.685
2304, 558.250
2305, 558.926
2306, 561.363
2307, 544.990
2308, 544.893
2309, 545.283
2310, 545.770
2311, 546.452
2312, 547.329
2313, 548.401
2314, 549.668
2315, 551.130
2316, 552.787
2317, 554.638
2318, 556.685
2319, 558.250
2320, 558.926
2321, 561.363
2322, 544.990
2323, 544.893
2324, 545.283
2325, 545.770
2326, 546.452
2327, 547.329
2328, 548.401
2329, 549.668
2330, 551.130
2331, 552.787
2332, 554.638
2333, 556.685
2334, 558.250
2335, 558.926
2336, 561.363
2337, 544.990
2338, 544.893
2339, 545.283
2340, 545.770
2341, 546.452
2342, 547.329
2343, 548.401
2344, 549.668
2345, 551.130
2346, 552.787
2347, 554.638
2348, 556.685
2349, 558.250
2350, 558.926
2351, 561.363
2352, 544.990
2353, 544.893
2354, 545.283
2355, 545.770
2356, 546.452
2357, 547.329
2358, 548.401
2359, 549.668
2360, 551.130
2361, 552.787
2362, 554.638
2363, 556.685
2364, 558.250
2365, 558.926
2366, 561.363
2367, 544.990
2368, 544.893
2369, 545.283
2370, 545.770
2371, 546.452
2372, 547.329
2373, 548.401
2374, 549.668
2375, 551.130
2376, 552.787
2377, 554.638
2378, 556.685
2379, 558.250
2380, 558.926
2381, 561.363
2382, 544.990
2383, 544.893
2384, 545.283
2385, 545.770
2386, 546.452
2387, 547.329
2388, 548.401
2389, 549.668
2390, 551.130
2391, 552.787
2392, 554.638
2393, 556.685
2394, 558.250
2395, 558.926
2396, 544.990
2397, 544.893
2398, 545.283
2399, 545.770
2400, 546.452
2401, 547.329
2402, 548.401
2403, 549.668
2404, 551.130
2405, 552.787
2406, 554.638
2407, 556.685
2408, 558.250
2409, 558.926
2410, 544.990
2411, 544.893
2412, 545.283
2413, 545.770
2414, 546.452
2415, 547.329
2416, 548.401
2417, 549.668
2418, 551.130
2419, 552.787
2420, 554.638
2421, 556.685
2422, 558.250
2423, 558.926
2424, 544.990
2425, 544.893
2426, 545.283
2427, 545.770
2428, 546.452
2429, 547.329
2430, 548.401
2431, 549.668
2432, 551.130
2433, 552.787
2434, 554.638
2435, 556.685
2436, 558.250
2437, 558.926
2438, 544.990
2439, 544.893
2440, 545.283
2441, 545.770
2442, 546.452
2443, 547.329
2444, 548.401
2445, 549.668
2446, 551.130
2447, 552.787
2448, 554.638
2449, 556.685
2450, 558.250
2451, 558.926
2452, 544.990
2453, 544.893
2454, 545.283
2455, 545.770
2456, 546.452
2457, 547.329
2458, 548.401
2459, 549.668
2460, 551.130
2461, 552.787
2462, 554.638
2463, 556.685
2464, 558.250
2465, 558.926
2466, 544.990
2467, 544.893
2468, 545.283
2469, 545.770
2470, 546.452
2471, 547.329
2472, 548.401
2473, 549.668
2474, 551.130
2475, 552.787
2476, 554.638
2477, 556.685
2478, 558.250
2479, 558.926
2480, 544.990
2481, 544.893
2482, 545.283
2483, 545.770
2484, 546.452
2485, 547.329
2486, 548.401
2487, 549.668
2488, 551.130
2489, 552.787
2490, 554.638
2491, 556.685
2492, 558.250
2493, 558.926
2494, 544.990
2495, 544.893
2496, 545.283
2497, 545.770
2498, 546.452
2499, 547.329
2500, 548.401
2501, 549.668
2502, 551.130
2503, 552.787
2504, 554.638
2505, 556.685
2506, 558.250
2507, 558.926
2508, 544.990
2509, 544.893
2510, 545.283
2511, 545.770
2512, 546.452
2513, 547.329
2514, 548.401
2515, 549.668
2516, 551.130
2517, 552.787
2518, 554.638
2519, 556.685
2520, 558.250
2521, 544.990
2522, 544.893
2523, 545.283
2524, 545.770
2525, 546.452
2526, 547.329
2527, 548.401
2528, 549.668
2529, 551.130
2530, 552.787
2531, 554.638
2532, 556.685
2533, 558.250
*NODE FILE
U
*EL FILE
S
*EL PRINT, ELSET=DISC
S
*END STEP
** ---- step 3: idle + thermal field
*STEP
*STATIC
*DLOAD
DISC, CENTRIF, 1.441031e+07, 0., 0., 0., 0., 1., 0.
288, P2, -3.477375e+07
310, P2, -3.477375e+07
334, P2, -3.477375e+07
359, P2, -3.477375e+07
386, P2, -3.477375e+07
414, P2, -3.477375e+07
443, P2, -3.477375e+07
502, P2, -3.477375e+07
561, P2, -3.477375e+07
620, P2, -3.477375e+07
679, P2, -3.477375e+07
738, P2, -3.477375e+07
797, P2, -3.477375e+07
856, P2, -3.477375e+07
915, P2, -3.477375e+07
974, P2, -3.477375e+07
1033, P2, -3.477375e+07
1092, P2, -3.477375e+07
1151, P2, -3.477375e+07
1210, P2, -3.477375e+07
1269, P2, -3.477375e+07
1328, P2, -3.477375e+07
1387, P2, -3.477375e+07
1446, P2, -3.477375e+07
1505, P2, -3.477375e+07
1564, P2, -3.477375e+07
1623, P2, -3.477375e+07
1682, P2, -3.477375e+07
1741, P2, -3.477375e+07
1800, P2, -3.477375e+07
1859, P2, -3.477375e+07
1918, P2, -3.477375e+07
1948, P2, -3.477375e+07
1977, P2, -3.477375e+07
2004, P2, -3.477375e+07
2030, P2, -3.477375e+07
2055, P2, -3.477375e+07
2077, P2, -3.477375e+07
2098, P2, -3.477375e+07
*TEMPERATURE
1, 544.893
2, 544.990
3, 544.990
4, 544.893
5, 545.283
6, 545.283
7, 545.770
8, 545.770
9, 546.452
10, 546.452
11, 547.329
12, 547.329
13, 548.401
14, 548.401
15, 549.668
16, 549.668
17, 551.130
18, 551.130
19, 552.787
20, 552.787
21, 554.638
22, 554.638
23, 556.685
24, 556.685
25, 558.250
26, 558.250
27, 544.990
28, 544.893
29, 545.283
30, 545.770
31, 546.452
32, 547.329
33, 548.401
34, 549.668
35, 551.130
36, 552.787
37, 554.638
38, 556.685
39, 558.250
40, 544.990
41, 544.893
42, 545.283
43, 545.770
44, 546.452
45, 547.329
46, 548.401
47, 549.668
48, 551.130
49, 552.787
50, 554.638
51, 556.685
52, 558.250
53, 558.926
54, 558.926
55, 544.990
56, 544.893
57, 545.283
58, 545.770
59, 546.452
60, 547.329
61, 548.401
62, 549.668
63, 551.130
64, 552.787
65, 554.638
66, 556.685
67, 558.250
68, 558.926
69, 544.990
70, 544.893
71, 545.283
72, 545.770
73, 546.452
74, 547.329
75, 548.401
76, 549.668
77, 551.130
78, 552.787
79, 554.638
80, 556.685
81, 558.250
82, 558.926
83, 544.990
84, 544.893
85, 545.283
86, 545.770
87, 546.452
88, 547.329
89, 548.401
90, 549.668
91, 551.130
92, 552.787
93, 554.638
94, 556.685
95, 558.250
96, 558.926
97, 544.990
98, 544.893
99, 545.283
100, 545.770
101, 546.452
102, 547.329
103, 548.401
104, 549.668
105, 551.130
106, 552.787
107, 554.638
108, 556.685
109, 558.250
110, 558.926
111, 544.990
112, 544.893
113, 545.283
114, 545.770
115, 546.452
116, 547.329
117, 548.401
118, 549.668
119, 551.130
120, 552.787
121, 554.638
122, 556.685
123, 558.250
124, 558.926
125, 544.990
126, 544.893
127, 545.283
128, 545.770
129, 546.452
130, 547.329
131, 548.401
132, 549.668
133, 551.130
134, 552.787
135, 554.638
136, 556.685
137, 558.250
138, 558.926
139, 544.990
140, 544.893
141, 545.283
142, 545.770
143, 546.452
144, 547.329
145, 548.401
146, 549.668
147, 551.130
148, 552.787
149, 554.638
150, 556.685
151, 558.250
152, 558.926
153, 544.990
154, 544.893
155, 545.283
156, 545.770
157, 546.452
158, 547.329
159, 548.401
160, 549.668
161, 551.130
162, 552.787
163, 554.638
164, 556.685
165, 558.250
166, 558.926
167, 561.363
168, 561.363
169, 544.990
170, 544.893
171, 545.283
172, 545.770
173, 546.452
174, 547.329
175, 548.401
176, 549.668
177, 551.130
178, 552.787
179, 554.638
180, 556.685
181, 558.250
182, 558.926
183, 561.363
184, 544.990
185, 544.893
186, 545.283
187, 545.770
188, 546.452
189, 547.329
190, 548.401
191, 549.668
192, 551.130
193, 552.787
194, 554.638
195, 556.685
196, 558.250
197, 558.926
198, 561.363
199, 544.990
200, 544.893
201, 545.283
202, 545.770
203, 546.452
204, 547.329
205, 548.401
206, 549.668
207, 551.130
208, 552.787
209, 554.638
210, 556.685
211, 558.250
212, 558.926
213, 561.363
214, 544.990
215, 544.893
216, 545.283
217, 545.770
218, 546.452
219, 547.329
220, 548.401
221, 549.668
222, 551.130
223, 552.787
224, 554.638
225, 556.685
226, 558.250
227, 558.926
228, 561.363
229, 544.990
230, 544.893
231, 545.283
232, 545.770
233, 546.452
234, 547.329
235, 548.401
236, 549.668
237, 551.130
238, 552.787
239, 554.638
240, 556.685
241, 558.250
242, 558.926
243, 561.363
244, 544.990
245, 544.893
246, 545.283
247, 545.770
248, 546.452
249, 547.329
250, 548.401
251, 549.668
252, 551.130
253, 552.787
254, 554.638
255, 556.685
256, 558.250
257, 558.926
258, 561.363
259, 544.990
260, 544.893
261, 545.283
262, 545.770
263, 546.452
264, 547.329
265, 548.401
266, 549.668
267, 551.130
268, 552.787
269, 554.638
270, 556.685
271, 558.250
272, 558.926
273, 561.363
274, 544.990
275, 544.893
276, 545.283
277, 545.770
278, 546.452
279, 547.329
280, 548.401
281, 549.668
282, 551.130
283, 552.787
284, 554.638
285, 556.685
286, 558.250
287, 558.926
288, 561.363
289, 544.990
290, 544.893
291, 545.283
292, 545.770
293, 546.452
294, 547.329
295, 548.401
296, 549.668
297, 551.130
298, 552.787
299, 554.638
300, 556.685
301, 558.250
302, 558.926
303, 561.363
304, 544.990
305, 544.893
306, 545.283
307, 545.770
308, 546.452
309, 547.329
310, 548.401
311, 549.668
312, 551.130
313, 552.787
314, 554.638
315, 556.685
316, 558.250
317, 558.926
318, 561.363
319, 781.199
320, 788.527
321, 788.527
322, 781.199
323, 798.369
324, 798.369
325, 808.407
326, 808.407
327, 818.640
328, 818.640
329, 829.067
330, 829.067
331, 837.856
332, 837.856
333, 544.990
334, 544.893
335, 545.283
336, 545.770
337, 546.452
338, 547.329
339, 548.401
340, 549.668
341, 551.130
342, 552.787
343, 554.638
344, 556.685
345, 558.250
346, 558.926
347, 561.363
348, 769.426
349, 778.879
350, 778.879
351, 769.426
352, 781.199
353, 788.527
354, 798.369
355, 808.407
356, 818.640
357, 829.067
358, 837.856
359, 544.990
360, 544.893
361, 545.283
362, 545.770
363, 546.452
364, 547.329
365, 548.401
366, 549.668
367, 551.130
368, 552.787
369, 554.638
370, 556.685
371, 558.250
372, 558.926
373, 561.363
374, 563.203
375, 563.203
376, 760.168
377, 769.426
378, 760.168
379, 778.879
380, 781.199
381, 788.527
382, 798.369
383, 808.407
384, 818.640
385, 829.067
386, 837.856
387, 544.990
388, 544.893
389, 545.283
390, 545.770
391, 546.452
392, 547.329
393, 548.401
394, 549.668
395, 551.130
396, 552.787
397, 554.638
398, 556.685
399, 558.250
400, 558.926
401, 561.363
402, 563.203
403, 751.104
404, 760.168
405, 751.104
406, 769.426
407, 778.879
408, 781.199
409, 788.527
410, 798.369
411, 808.407
412, 818.640
413, 829.067
414, 837.856
415, 544.990
416, 544.893
417, 545.283
418, 545.770
419, 546.452
420, 547.329
421, 548.401
422, 549.668
423, 551.130
424, 552.787
425, 554.638
426, 556.685
427, 558.250
428, 558.926
429, 561.363
430, 563.203
431, 733.563
432, 742.236
433, 742.236
434, 733.563
435, 751.104
436, 760.168
437, 769.426
438, 778.879
439, 781.199
440, 788.527
441, 798.369
442, 808.407
443, 818.640
444, 829.067
445, 837.856
446, 544.990
447, 544.893
448, 545.283
449, 545.770
450, 546.452
451, 547.329
452, 548.401
453, 549.668
454, 551.130
455, 552.787
456, 554.638
457, 556.685
458, 558.250
459, 558.926
460, 561.363
461, 563.203
462, 725.084
463, 733.563
464, 725.084
465, 742.236
466, 751.104
467, 760.168
468, 769.426
469, 778.879
470, 781.199
471, 788.527
472, 798.369
473, 808.407
474, 818.640
475, 829.067
476, 837.856
477, 544.990
478, 544.893
479, 545.283
480, 545.770
481, 546.452
482, 547.329
483, 548.401
484, 549.668
485, 551.130
486, 552.787
487, 554.638
488, 556.685
489, 558.250
490, 558.926
491, 561.363
492, 563.203
493, 716.801
494, 725.084
495, 716.801
496, 733.563
497, 742.236
498, 751.104
499, 760.168
500, 769.426
501, 778.879
502, 781.199
503, 788.527
504, 798.369
505, 808.407
506, 818.640
507, 829.067
508, 837.856
509, 544.990
510, 544.893
511, 545.283
512, 545.770
513, 546.452
514, 547.329
515, 548.401
516, 549.668
517, 551.130
518, 552.787
519, 554.638
520, 556.685
521, 558.250
522, 558.926
523, 561.363
524, 563.203
525, 563.994
526, 563.994
527, 566.820
528, 566.820
529, 569.841
530, 569.841
531, 573.057
532, 573.057
533, 576.468
534, 576.468
535, 580.074
536, 580.074
537, 583.874
538, 583.874
539, 587.870
540, 587.870
541, 592.060
542, 592.060
543, 596.446
544, 596.446
545, 601.026
546, 601.026
547, 605.801
548, 605.801
549, 610.771
550, 610.771
551, 615.936
552, 615.936
553, 621.296
554, 621.296
555, 626.851
556, 626.851
557, 632.601
558, 632.601
559, 638.546
560, 638.546
561, 644.685
562, 644.685
563, 651.020
564, 651.020
565, 657.549
566, 657.549
567, 664.273
568, 664.273
569, 671.193
570, 671.193
571, 678.307
572, 678.307
573, 685.616
574, 685.616
575, 693.120
576, 693.120
577, 700.818
578, 700.818
579, 707.619
580, 707.619
581, 708.712
582, 708.712
583, 716.801
584, 725.084
585, 733.563
586, 742.236
587, 751.104
588, 760.168
589, 769.426
590, 778.879
591, 781.199
592, 788.527
593, 798.369
594, 808.407
595, 818.640
596, 829.067
597, 837.856
598, 544.990
599, 544.893
600, 545.283
601, 545.770
602, 546.452
603, 547.329
604, 548.401
605, 549.668
606, 551.130
607, 552.787
608, 554.638
609, 556.685
610, 558.250
611, 558.926
612, 561.363
613, 563.203
614, 563.994
615, 566.820
616, 569.841
617, 573.057
618, 576.468
619, 580.074
620, 583.874
621, 587.870
622, 592.060
623, 596.446
624, 601.026
625, 605.801
626, 610.771
627, 615.936
628, 621.296
629, 626.851
630, 632.601
631, 638.546
632, 644.685
633, 651.020
634, 657.549
635, 664.273
636, 671.193
637, 678.307
638, 685.616
639, 693.120
640, 700.818
641, 707.619
642, 708.712
643, 716.801
644, 725.084
645, 733.563
646, 742.236
647, 751.104
648, 760.168
649, 769.426
650, 778.879
651, 781.199
652, 788.527
653, 798.369
654, 808.407
655, 818.640
656, 829.067
657, 837.856
658, 544.990
659, 544.893
660, 545.283
661, 545.770
662, 546.452
663, 547.329
664, 548.401
665, 549.668
666, 551.130
667, 552.787
668, 554.638
669, 556.685
670, 558.250
671, 558.926
672, 561.363
673, 563.203
674, 563.994
675, 566.820
676, 569.841
677, 573.057
678, 576.468
679, 580.074
680, 583.874
681, 587.870
682, 592.060
683, 596.446
684, 601.026
685, 605.801
686, 610.771
687, 615.936
688, 621.296
689, 626.851
690, 632.601
691, 638.546
692, 644.685
693, 651.020
694, 657.549
695, 664.273
696, 671.193
697, 678.307
698, 685.616
699, 693.120
700, 700.818
701, 707.619
702, 708.712
703, 716.801
704, 725.084
705, 733.563
706, 742.236
707, 751.104
708, 760.168
709, 769.426
710, 778.879
711, 781.199
712, 788.527
713, 798.369
714, 808.407
715, 818.640
716, 829.067
717, 837.856
718, 544.990
719, 544.893
720, 545.283
721, 545.770
722, 546.452
723, 547.329
724, 548.401
725, 549.668
726, 551.130
727, 552.787
728, 554.638
729, 556.685
730, 558.250
731, 558.926
732, 561.363
733, 563.203
734, 563.994
735, 566.820
736, 569.841
737, 573.057
738, 576.468
739, 580.074
740, 583.874
741, 587.870
742, 592.060
743, 596.446
744, 601.026
745, 605.801
746, 610.771
747, 615.936
748, 621.296
749, 626.851
750, 632.601
751, 638.546
752, 644.685
753, 651.020
754, 657.549
755, 664.273
756, 671.193
757, 678.307
758, 685.616
759, 693.120
760, 700.818
761, 707.619
762, 708.712
763, 716.801
764, 725.084
765, 733.563
766, 742.236
767, 751.104
768, 760.168
769, 769.426
770, 778.879
771, 781.199
772, 788.527
773, 798.369
774, 808.407
775, 818.640
776, 829.067
777, 837.856
778, 544.990
779, 544.893
780, 545.283
781, 545.770
782, 546.452
783, 547.329
784, 548.401
785, 549.668
786, 551.130
787, 552.787
788, 554.638
789, 556.685
790, 558.250
791, 558.926
792, 561.363
793, 563.203
794, 563.994
795, 566.820
796, 569.841
797, 573.057
798, 576.468
799, 580.074
800, 583.874
801, 587.870
802, 592.060
803, 596.446
804, 601.026
805, 605.801
806, 610.771
807, 615.936
808, 621.296
809, 626.851
810, 632.601
811, 638.546
812, 644.685
813, 651.020
814, 657.549
815, 664.273
816, 671.193
817, 678.307
818, 685.616
819, 693.120
820, 700.818
821, 707.619
822, 708.712
823, 716.801
824, 725.084
825, 733.563
826, 742.236
827, 751.104
828, 760.168
829, 769.426
830, 778.879
831, 781.199
832, 788.527
833, 798.369
834, 808.407
835, 818.640
836, 829.067
837, 837.856
838, 544.990
839, 544.893
840, 545.283
841, 545.770
842, 546.452
843, 547.329
844, 548.401
845, 549.668
846, 551.130
847, 552.787
848, 554.638
849, 556.685
850, 558.250
851, 558.926
852, 561.363
853, 563.203
854, 563.994
855, 566.820
856, 569.841
857, 573.057
858, 576.468
859, 580.074
860, 583.874
861, 587.870
862, 592.060
863, 596.446
864, 601.026
865, 605.801
866, 610.771
867, 615.936
868, 621.296
869, 626.851
870, 632.601
871, 638.546
872, 644.685
873, 651.020
874, 657.549
875, 664.273
876, 671.193
877, 678.307
878, 685.616
879, 693.120
880, 700.818
881, 707.619
882, 708.712
883, 716.801
884, 725.084
885, 733.563
886, 742.236
887, 751.104
888, 760.168
889, 769.426
890, 778.879
891, 781.199
892, 788.527
893, 798.369
894, 808.407
895, 818.640
896, 829.067
897, 837.856
898, 544.990
899, 544.893
900, 545.283
901, 545.770
902, 546.452
903, 547.329
904, 548.401
905, 549.668
906, 551.130
907, 552.787
908, 554.638
909, 556.685
910, 558.250
911, 558.926
912, 561.363
913, 563.203
914, 563.994
915, 566.820
916, 569.841
917, 573.057
918, 576.468
919, 580.074
920, 583.874
921, 587.870
922, 592.060
923, 596.446
924, 601.026
925, 605.801
926, 610.771
927, 615.936
928, 621.296
929, 626.851
930, 632.601
931, 638.546
932, 644.685
933, 651.020
934, 657.549
935, 664.273
936, 671.193
937, 678.307
938, 685.616
939, 693.120
940, 700.818
941, 707.619
942, 708.712
943, 716.801
944, 725.084
945, 733.563
946, 742.236
947, 751.104
948, 760.168
949, 769.426
950, 778.879
951, 781.199
952, 788.527
953, 798.369
954, 808.407
955, 818.640
956, 829.067
957, 837.856
958, 544.990
959, 544.893
960, 545.283
961, 545.770
962, 546.452
963, 547.329
964, 548.401
965, 549.668
966, 551.130
967, 552.787
968, 554.638
969, 556.685
970, 558.250
971, 558.926
972, 561.363
973, 563.203
974, 563.994
975, 566.820
976, 569.841
977, 573.057
978, 576.468
979, 580.074
980, 583.874
981, 587.870
982, 592.060
983, 596.446
984, 601.026
985, 605.801
986, 610.771
987, 615.936
988, 621.296
989, 626.851
990, 632.601
991, 638.546
992, 644.685
993, 651.020
994, 657.549
995, 664.273
996, 671.193
997, 678.307
998, 685.616
999, 693.120
1000, 700.818
1001, 707.619
1002, 708.712
1003, 716.801
1004, 725.084
1005, 733.563
1006, 742.236
1007, 751.104
1008, 760.168
1009, 769.426
1010, 778.879
1011, 781.199
1012, 788.527
1013, 798.369
1014, 808.407
1015, 818.640
1016, 829.067
1017, 837.856
1018, 544.990
1019, 544.893
1020, 545.283
1021, 545.770
1022, 546.452
1023, 547.329
1024, 548.401
1025, 549.668
1026, 551.130
1027, 552.787
1028, 554.638
1029, 556.685
1030, 558.250
1031, 558.926
1032, 561.363
1033, 563.203
1034, 563.994
1035, 566.820
1036, 569.841
1037, 573.057
1038, 576.468
1039, 580.074
1040, 583.874
1041, 587.870
1042, 592.060
1043, 596.446
1044, 601.026
1045, 605.801
1046, 610.771
1047, 615.936
1048, 621.296
1049, 626.851
1050, 632.601
1051, 638.546
1052, 644.685
1053, 651.020
1054, 657.549
1055, 664.273
1056, 671.193
1057, 678.307
1058, 685.616
1059, 693.120
1060, 700.818
1061, 707.619
1062, 708.712
1063, 716.801
1064, 725.084
1065, 733.563
1066, 742.236
1067, 751.104
1068, 760.168
1069, 769.426
1070, 778.879
1071, 781.199
1072, 788.527
1073, 798.369
1074, 808.407
1075, 818.640
1076, 829.067
1077, 837.856
1078, 544.990
1079, 544.893
1080, 545.283
1081, 545.770
1082, 546.452
1083, 547.329
1084, 548.401
1085, 549.668
1086, 551.130
1087, 552.787
1088, 554.638
1089, 556.685
1090, 558.250
1091, 558.926
1092, 561.363
1093, 563.203
1094, 563.994
1095, 566.820
1096, 569.841
1097, 573.057
1098, 576.468
1099, 580.074
1100, 583.874
1101, 587.870
1102, 592.060
1103, 596.446
1104, 601.026
1105, 605.801
1106, 610.771
1107, 615.936
1108, 621.296
1109, 626.851
1110, 632.601
1111, 638.546
1112, 644.685
1113, 651.020
1114, 657.549
1115, 664.273
1116, 671.193
1117, 678.307
1118, 685.616
1119, 693.120
1120, 700.818
1121, 707.619
1122, 708.712
1123, 716.801
1124, 725.084
1125, 733.563
1126, 742.236
1127, 751.104
1128, 760.168
1129, 769.426
1130, 778.879
1131, 781.199
1132, 788.527
1133, 798.369
1134, 808.407
1135, 818.640
1136, 829.067
1137, 837.856
1138, 544.990
1139, 544.893
1140, 545.283
1141, 545.770
1142, 546.452
1143, 547.329
1144, 548.401
1145, 549.668
1146, 551.130
1147, 552.787
1148, 554.638
1149, 556.685
1150, 558.250
1151, 558.926
1152, 561.363
1153, 563.203
1154, 563.994
1155, 566.820
1156, 569.841
1157, 573.057
1158, 576.468
1159, 580.074
1160, 583.874
1161, 587.870
1162, 592.060
1163, 596.446
1164, 601.026
1165, 605.801
1166, 610.771
1167, 615.936
1168, 621.296
1169, 626.851
1170, 632.601
1171, 638.546
1172, 644.685
1173, 651.020
1174, 657.549
1175, 664.273
1176, 671.193
1177, 678.307
1178, 685.616
1179, 693.120
1180, 700.818
1181, 707.619
1182, 708.712
1183, 716.801
1184, 725.084
1185, 733.563
1186, 742.236
1187, 751.104
1188, 760.168
1189, 769.426
1190, 778.879
1191, 781.199
1192, 788.527
1193, 798.369
1194, 808.407
1195, 818.640
1196, 829.067
1197, 837.856
1198, 544.990
1199, 544.893
1200, 545.283
1201, 545.770
1202, 546.452
1203, 547.329
1204, 548.401
1205, 549.668
1206, 551.130
1207, 552.787
1208, 554.638
1209, 556.685
1210, 558.250
1211, 558.926
1212, 561.363
1213, 563.203
1214, 563.994
1215, 566.820
1216, 569.841
1217, 573.057
1218, 576.468
1219, 580.074
1220, 583.874
1221, 587.870
1222, 592.060
1223, 596.446
1224, 601.026
1225, 605.801
1226, 610.771
1227, 615.936
1228, 621.296
1229, 626.851
1230, 632.601
1231, 638.546
1232, 644.685
1233, 651.020
1234, 657.549
1235, 664.273
1236, 671.193
1237, 678.307
1238, 685.616
1239, 693.120
1240, 700.818
1241, 707.619
1242, 708.712
1243, 716.801
1244, 725.084
1245, 733.563
1246, 742.236
1247, 751.104
1248, 760.168
1249, 769.426
1250, 778.879
1251, 781.199
1252, 788.527
1253, 798.369
1254, 808.407
1255, 818.640
1256, 829.067
1257, 837.856
1258, 544.990
1259, 544.893
1260, 545.283
1261, 545.770
1262, 546.452
1263, 547.329
1264, 548.401
1265, 549.668
1266, 551.130
1267, 552.787
1268, 554.638
1269, 556.685
1270, 558.250
1271, 558.926
1272, 561.363
1273, 563.203
1274, 563.994
1275, 566.820
1276, 569.841
1277, 573.057
1278, 576.468
1279, 580.074
1280, 583.874
1281, 587.870
1282, 592.060
1283, 596.446
1284, 601.026
1285, 605.801
1286, 610.771
1287, 615.936
1288, 621.296
1289, 626.851
1290, 632.601
1291, 638.546
1292, 644.685
1293, 651.020
1294, 657.549
1295, 664.273
1296, 671.193
1297, 678.307
1298, 685.616
1299, 693.120
1300, 700.818
1301, 707.619
1302, 708.712
1303, 716.801
1304, 725.084
1305, 733.563
1306, 742.236
1307, 751.104
1308, 760.168
1309, 769.426
1310, 778.879
1311, 781.199
1312, 788.527
1313, 798.369
1314, 808.407
1315, 818.640
1316, 829.067
1317, 837.856
1318, 544.990
1319, 544.893
1320, 545.283
1321, 545.770
1322, 546.452
1323, 547.329
1324, 548.401
1325, 549.668
1326, 551.130
1327, 552.787
1328, 554.638
1329, 556.685
1330, 558.250
1331, 558.926
1332, 561.363
1333, 563.203
1334, 563.994
1335, 566.820
1336, 569.841
1337, 573.057
1338, 576.468
1339, 580.074
1340, 583.874
1341, 587.870
1342, 592.060
1343, 596.446
1344, 601.026
1345, 605.801
1346, 610.771
1347, 615.936
1348, 621.296
1349, 626.851
1350, 632.601
1351, 638.546
1352, 644.685
1353, 651.020
1354, 657.549
1355, 664.273
1356, 671.193
1357, 678.307
1358, 685.616
1359, 693.120
1360, 700.818
1361, 707.619
1362, 708.712
1363, 716.801
1364, 725.084
1365, 733.563
1366, 742.236
1367, 751.104
1368, 760.168
1369, 769.426
1370, 778.879
1371, 781.199
1372, 788.527
1373, 798.369
1374, 808.407
1375, 818.640
1376, 829.067
1377, 837.856
1378, 544.990
1379, 544.893
1380, 545.283
1381, 545.770
1382, 546.452
1383, 547.329
1384, 548.401
1385, 549.668
1386, 551.130
1387, 552.787
1388, 554.638
1389, 556.685
1390, 558.250
1391, 558.926
1392, 561.363
1393, 563.203
1394, 563.994
1395, 566.820
1396, 569.841
1397, 573.057
1398, 576.468
1399, 580.074
1400, 583.874
1401, 587.870
1402, 592.060
1403, 596.446
1404, 601.026
1405, 605.801
1406, 610.771
1407, 615.936
1408, 621.296
1409, 626.851
1410, 632.601
1411, 638.546
1412, 644.685
1413, 651.020
1414, 657.549
1415, 664.273
1416, 671.193
1417, 678.307
1418, 685.616
1419, 693.120
1420, 700.818
1421, 707.619
1422, 708.712
1423, 716.801
1424, 725.084
1425, 733.563
1426, 742.236
1427, 751.104
1428, 760.168
1429, 769.426
1430, 778.879
1431, 781.199
1432, 788.527
1433, 798.369
1434, 808.407
1435, 818.640
1436, 829.067
1437, 837.856
1438, 544.990
1439, 544.893
1440, 545.283
1441, 545.770
1442, 546.452
1443, 547.329
1444, 548.401
1445, 549.668
1446, 551.130
1447, 552.787
1448, 554.638
1449, 556.685
1450, 558.250
1451, 558.926
1452, 561.363
1453, 563.203
1454, 563.994
1455, 566.820
1456, 569.841
1457, 573.057
1458, 576.468
1459, 580.074
1460, 583.874
1461, 587.870
1462, 592.060
1463, 596.446
1464, 601.026
1465, 605.801
1466, 610.771
1467, 615.936
1468, 621.296
1469, 626.851
1470, 632.601
1471, 638.546
1472, 644.685
1473, 651.020
1474, 657.549
1475, 664.273
1476, 671.193
1477, 678.307
1478, 685.616
1479, 693.120
1480, 700.818
1481, 707.619
1482, 708.712
1483, 716.801
1484, 725.084
1485, 733.563
1486, 742.236
1487, 751.104
1488, 760.168
1489, 769.426
1490, 778.879
1491, 781.199
1492, 788.527
1493, 798.369
1494, 808.407
1495, 818.640
1496, 829.067
1497, 837.856
1498, 544.990
1499, 544.893
1500, 545.283
1501, 545.770
1502, 546.452
1503, 547.329
1504, 548.401
1505, 549.668
1506, 551.130
1507, 552.787
1508, 554.638
1509, 556.685
1510, 558.250
1511, 558.926
1512, 561.363
1513, 563.203
1514, 563.994
1515, 566.820
1516, 569.841
1517, 573.057
1518, 576.468
1519, 580.074
1520, 583.874
1521, 587.870
1522, 592.060
1523, 596.446
1524, 601.026
1525, 605.801
1526, 610.771
1527, 615.936
1528, 621.296
1529, 626.851
1530, 632.601
1531, 638.546
1532, 644.685
1533, 651.020
1534, 657.549
1535, 664.273
1536, 671.193
1537, 678.307
1538, 685.616
1539, 693.120
1540, 700.818
1541, 707.619
1542, 708.712
1543, 716.801
1544, 725.084
1545, 733.563
1546, 742.236
1547, 751.104
1548, 760.168
1549, 769.426
1550, 778.879
1551, 781.199
1552, 788.527
1553, 798.369
1554, 808.407
1555, 818.640
1556, 829.067
1557, 837.856
1558, 544.990
1559, 544.893
1560, 545.283
1561, 545.770
1562, 546.452
1563, 547.329
1564, 548.401
1565, 549.668
1566, 551.130
1567, 552.787
1568, 554.638
1569, 556.685
1570, 558.250
1571, 558.926
1572, 561.363
1573, 563.203
1574, 563.994
1575, 566.820
1576, 569.841
1577, 573.057
1578, 576.468
1579, 580.074
1580, 583.874
1581, 587.870
1582, 592.060
1583, 596.446
1584, 601.026
1585, 605.801
1586, 610.771
1587, 615.936
1588, 621.296
1589, 626.851
1590, 632.601
1591, 638.546
1592, 644.685
1593, 651.020
1594, 657.549
1595, 664.273
1596, 671.193
1597, 678.307
1598, 685.616
1599, 693.120
1600, 700.818
1601, 707.619
1602, 708.712
1603, 716.801
1604, 725.084
1605, 733.563
1606, 742.236
1607, 751.104
1608, 760.168
1609, 769.426
1610, 778.879
1611, 781.199
1612, 788.527
1613, 798.369
1614, 808.407
1615, 818.640
1616, 829.067
1617, 837.856
1618, 544.990
1619, 544.893
1620, 545.283
1621, 545.770
1622, 546.452
1623, 547.329
1624, 548.401
1625, 549.668
1626, 551.130
1627, 552.787
1628, 554.638
1629, 556.685
1630, 558.250
1631, 558.926
1632, 561.363
1633, 563.203
1634, 563.994
1635, 566.820
1636, 569.841
1637, 573.057
1638, 576.468
1639, 580.074
1640, 583.874
1641, 587.870
1642, 592.060
1643, 596.446
1644, 601.026
1645, 605.801
1646, 610.771
1647, 615.936
1648, 621.296
1649, 626.851
1650, 632.601
1651, 638.546
1652, 644.685
1653, 651.020
1654, 657.549
1655, 664.273
1656, 671.193
1657, 678.307
1658, 685.616
1659, 693.120
1660, 700.818
1661, 707.619
1662, 708.712
1663, 716.801
1664, 725.084
1665, 733.563
1666, 742.236
1667, 751.104
1668, 760.168
1669, 769.426
1670, 778.879
1671, 781.199
1672, 788.527
1673, 798.369
1674, 808.407
1675, 818.640
1676, 829.067
1677, 837.856
1678, 544.990
1679, 544.893
1680, 545.283
1681, 545.770
1682, 546.452
1683, 547.329
1684, 548.401
1685, 549.668
1686, 551.130
1687, 552.787
1688, 554.638
1689, 556.685
1690, 558.250
1691, 558.926
1692, 561.363
1693, 563.203
1694, 563.994
1695, 566.820
1696, 569.841
1697, 573.057
1698, 576.468
1699, 580.074
1700, 583.874
1701, 587.870
1702, 592.060
1703, 596.446
1704, 601.026
1705, 605.801
1706, 610.771
1707, 615.936
1708, 621.296
1709, 626.851
1710, 632.601
1711, 638.546
1712, 644.685
1713, 651.020
1714, 657.549
1715, 664.273
1716, 671.193
1717, 678.307
1718, 685.616
1719, 693.120
1720, 700.818
1721, 707.619
1722, 708.712
1723, 716.801
1724, 725.084
1725, 733.563
1726, 742.236
1727, 751.104
1728, 760.168
1729, 769.426
1730, 778.879
1731, 781.199
1732, 788.527
1733, 798.369
1734, 808.407
1735, 818.640
1736, 829.067
1737, 837.856
1738, 544.990
1739, 544.893
1740, 545.283
1741, 545.770
1742, 546.452
1743, 547.329
1744, 548.401
1745, 549.668
1746, 551.130
1747, 552.787
1748, 554.638
1749, 556.685
1750, 558.250
1751, 558.926
1752, 561.363
1753, 563.203
1754, 563.994
1755, 566.820
1756, 569.841
1757, 573.057
1758, 576.468
1759, 580.074
1760, 583.874
1761, 587.870
1762, 592.060
1763, 596.446
1764, 601.026
1765, 605.801
1766, 610.771
1767, 615.936
1768, 621.296
1769, 626.851
1770, 632.601
1771, 638.546
1772, 644.685
1773, 651.020
1774, 657.549
1775, 664.273
1776, 671.193
1777, 678.307
1778, 685.616
1779, 693.120
1780, 700.818
1781, 707.619
1782, 708.712
1783, 716.801
1784, 725.084
1785, 733.563
1786, 742.236
1787, 751.104
1788, 760.168
1789, 769.426
1790, 778.879
1791, 781.199
1792, 788.527
1793, 798.369
1794, 808.407
1795, 818.640
1796, 829.067
1797, 837.856
1798, 544.990
1799, 544.893
1800, 545.283
1801, 545.770
1802, 546.452
1803, 547.329
1804, 548.401
1805, 549.668
1806, 551.130
1807, 552.787
1808, 554.638
1809, 556.685
1810, 558.250
1811, 558.926
1812, 561.363
1813, 563.203
1814, 563.994
1815, 566.820
1816, 569.841
1817, 573.057
1818, 576.468
1819, 580.074
1820, 583.874
1821, 587.870
1822, 592.060
1823, 596.446
1824, 601.026
1825, 605.801
1826, 610.771
1827, 615.936
1828, 621.296
1829, 626.851
1830, 632.601
1831, 638.546
1832, 644.685
1833, 651.020
1834, 657.549
1835, 664.273
1836, 671.193
1837, 678.307
1838, 685.616
1839, 693.120
1840, 700.818
1841, 707.619
1842, 708.712
1843, 716.801
1844, 725.084
1845, 733.563
1846, 742.236
1847, 751.104
1848, 760.168
1849, 769.426
1850, 778.879
1851, 781.199
1852, 788.527
1853, 798.369
1854, 808.407
1855, 818.640
1856, 829.067
1857, 837.856
1858, 544.990
1859, 544.893
1860, 545.283
1861, 545.770
1862, 546.452
1863, 547.329
1864, 548.401
1865, 549.668
1866, 551.130
1867, 552.787
1868, 554.638
1869, 556.685
1870, 558.250
1871, 558.926
1872, 561.363
1873, 563.203
1874, 563.994
1875, 566.820
1876, 569.841
1877, 573.057
1878, 576.468
1879, 580.074
1880, 583.874
1881, 587.870
1882, 592.060
1883, 596.446
1884, 601.026
1885, 605.801
1886, 610.771
1887, 615.936
1888, 621.296
1889, 626.851
1890, 632.601
1891, 638.546
1892, 644.685
1893, 651.020
1894, 657.549
1895, 664.273
1896, 671.193
1897, 678.307
1898, 685.616
1899, 693.120
1900, 700.818
1901, 707.619
1902, 708.712
1903, 716.801
1904, 725.084
1905, 733.563
1906, 742.236
1907, 751.104
1908, 760.168
1909, 769.426
1910, 778.879
1911, 781.199
1912, 788.527
1913, 798.369
1914, 808.407
1915, 818.640
1916, 829.067
1917, 837.856
1918, 544.990
1919, 544.893
1920, 545.283
1921, 545.770
1922, 546.452
1923, 547.329
1924, 548.401
1925, 549.668
1926, 551.130
1927, 552.787
1928, 554.638
1929, 556.685
1930, 558.250
1931, 558.926
1932, 561.363
1933, 563.203
1934, 563.994
1935, 566.820
1936, 569.841
1937, 573.057
1938, 576.468
1939, 580.074
1940, 583.874
1941, 587.870
1942, 592.060
1943, 596.446
1944, 601.026
1945, 605.801
1946, 610.771
1947, 615.936
1948, 621.296
1949, 626.851
1950, 632.601
1951, 638.546
1952, 644.685
1953, 651.020
1954, 657.549
1955, 664.273
1956, 671.193
1957, 678.307
1958, 685.616
1959, 693.120
1960, 700.818
1961, 707.619
1962, 708.712
1963, 716.801
1964, 725.084
1965, 733.563
1966, 742.236
1967, 751.104
1968, 760.168
1969, 769.426
1970, 778.879
1971, 781.199
1972, 788.527
1973, 798.369
1974, 808.407
1975, 818.640
1976, 829.067
1977, 837.856
1978, 544.990
1979, 544.893
1980, 545.283
1981, 545.770
1982, 546.452
1983, 547.329
1984, 548.401
1985, 549.668
1986, 551.130
1987, 552.787
1988, 554.638
1989, 556.685
1990, 558.250
1991, 558.926
1992, 561.363
1993, 563.203
1994, 563.994
1995, 566.820
1996, 569.841
1997, 573.057
1998, 576.468
1999, 580.074
2000, 583.874
2001, 587.870
2002, 592.060
2003, 596.446
2004, 601.026
2005, 605.801
2006, 610.771
2007, 615.936
2008, 621.296
2009, 626.851
2010, 632.601
2011, 638.546
2012, 644.685
2013, 651.020
2014, 657.549
2015, 664.273
2016, 671.193
2017, 678.307
2018, 685.616
2019, 693.120
2020, 700.818
2021, 707.619
2022, 708.712
2023, 716.801
2024, 725.084
2025, 733.563
2026, 742.236
2027, 751.104
2028, 760.168
2029, 769.426
2030, 778.879
2031, 781.199
2032, 788.527
2033, 798.369
2034, 808.407
2035, 818.640
2036, 829.067
2037, 837.856
2038, 544.990
2039, 544.893
2040, 545.283
2041, 545.770
2042, 546.452
2043, 547.329
2044, 548.401
2045, 549.668
2046, 551.130
2047, 552.787
2048, 554.638
2049, 556.685
2050, 558.250
2051, 558.926
2052, 561.363
2053, 563.203
2054, 716.801
2055, 708.712
2056, 725.084
2057, 733.563
2058, 742.236
2059, 751.104
2060, 760.168
2061, 769.426
2062, 778.879
2063, 781.199
2064, 788.527
2065, 798.369
2066, 808.407
2067, 818.640
2068, 829.067
2069, 837.856
2070, 544.990
2071, 544.893
2072, 545.283
2073, 545.770
2074, 546.452
2075, 547.329
2076, 548.401
2077, 549.668
2078, 551.130
2079, 552.787
2080, 554.638
2081, 556.685
2082, 558.250
2083, 558.926
2084, 561.363
2085, 563.203
2086, 725.084
2087, 716.801
2088, 733.563
2089, 742.236
2090, 751.104
2091, 760.168
2092, 769.426
2093, 778.879
2094, 781.199
2095, 788.527
2096, 798.369
2097, 808.407
2098, 818.640
2099, 829.067
2100, 837.856
2101, 544.990
2102, 544.893
2103, 545.283
2104, 545.770
2105, 546.452
2106, 547.329
2107, 548.401
2108, 549.668
2109, 551.130
2110, 552.787
2111, 554.638
2112, 556.685
2113, 558.250
2114, 558.926
2115, 561.363
2116, 563.203
2117, 742.236
2118, 733.563
2119, 751.104
2120, 760.168
2121, 769.426
2122, 778.879
2123, 781.199
2124, 788.527
2125, 798.369
2126, 808.407
2127, 818.640
2128, 829.067
2129, 837.856
2130, 544.990
2131, 544.893
2132, 545.283
2133, 545.770
2134, 546.452
2135, 547.329
2136, 548.401
2137, 549.668
2138, 551.130
2139, 552.787
2140, 554.638
2141, 556.685
2142, 558.250
2143, 558.926
2144, 561.363
2145, 563.203
2146, 751.104
2147, 742.236
2148, 760.168
2149, 769.426
2150, 778.879
2151, 781.199
2152, 788.527
2153, 798.369
2154, 808.407
2155, 818.640
2156, 829.067
2157, 837.856
2158, 544.990
2159, 544.893
2160, 545.283
2161, 545.770
2162, 546.452
2163, 547.329
2164, 548.401
2165, 549.668
2166, 551.130
2167, 552.787
2168, 554.638
2169, 556.685
2170, 558.250
2171, 558.926
2172, 561.363
2173, 563.203
2174, 760.168
2175, 751.104
2176, 769.426
2177, 778.879
2178, 781.199
2179, 788.527
2180, 798.369
2181, 808.407
2182, 818.640
2183, 829.067
2184, 837.856
2185, 544.990
2186, 544.893
2187, 545.283
2188, 545.770
2189, 546.452
2190, 547.329
2191, 548.401
2192, 549.668
2193, 551.130
2194, 552.787
2195, 554.638
2196, 556.685
2197, 558.250
2198, 558.926
2199, 561.363
2200, 778.879
2201, 769.426
2202, 781.199
2203, 788.527
2204, 798.369
2205, 808.407
2206, 818.640
2207, 829.067
2208, 837.856
2209, 544.990
2210, 544.893
2211, 545.283
2212, 545.770
2213, 546.452
2214, 547.329
2215, 548.401
2216, 549.668
2217, 551.130
2218, 552.787
2219, 554.638
2220, 556.685
2221, 558.250
2222, 558.926
2223, 561.363
2224, 781.199
2225, 778.879
2226, 788.527
2227, 798.369
2228, 808.407
2229, 818.640
2230, 829.067
2231, 837.856
2232, 544.990
2233, 544.893
2234, 545.283
2235, 545.770
2236, 546.452
2237, 547.329
2238, 548.401
2239, 549.668
2240, 551.130
2241, 552.787
2242, 554.638
2243, 556.685
2244, 558.250
2245, 558.926
2246, 561.363
2247, 544.990
2248, 544.893
2249, 545.283
2250, 545.770
2251, 546.452
2252, 547.329
2253, 548.401
2254, 549.668
2255, 551.130
2256, 552.787
2257, 554.638
2258, 556.685
2259, 558.250
2260, 558.926
2261, 561.363
2262, 544.990
2263, 544.893
2264, 545.283
2265, 545.770
2266, 546.452
2267, 547.329
2268, 548.401
2269, 549.668
2270, 551.130
2271, 552.787
2272, 554.638
2273, 556.685
2274, 558.250
2275, 558.926
2276, 561.363
2277, 544.990
2278, 544.893
2279, 545.283
2280, 545.770
2281, 546.452
2282, 547.329
2283, 548.401
2284, 549.668
2285, 551.130
2286, 552.787
2287, 554.638
2288, 556.685
2289, 558.250
2290, 558.926
2291, 561.363
2292, 544.990
2293, 544.893
2294, 545.283
2295, 545.770
2296, 546.452
2297, 547.329
2298, 548.401
2299, 549.668
2300, 551.130
2301, 552.787
2302, 554.638
2303, 556.685
2304, 558.250
2305, 558.926
2306, 561.363
2307, 544.990
2308, 544.893
2309, 545.283
2310, 545.770
2311, 546.452
2312, 547.329
2313, 548.401
2314, 549.668
2315, 551.130
2316, 552.787
2317, 554.638
2318, 556.685
2319, 558.250
2320, 558.926
2321, 561.363
2322, 544.990
2323, 544.893
2324, 545.283
2325, 545.770
2326, 546.452
2327, 547.329
2328, 548.401
2329, 549.668
2330, 551.130
2331, 552.787
2332, 554.638
2333, 556.685
2334, 558.250
2335, 558.926
2336, 561.363
2337, 544.990
2338, 544.893
2339, 545.283
2340, 545.770
2341, 546.452
2342, 547.329
2343, 548.401
2344, 549.668
2345, 551.130
2346, 552.787
2347, 554.638
2348, 556.685
2349, 558.250
2350, 558.926
2351, 561.363
2352, 544.990
2353, 544.893
2354, 545.283
2355, 545.770
2356, 546.452
2357, 547.329
2358, 548.401
2359, 549.668
2360, 551.130
2361, 552.787
2362, 554.638
2363, 556.685
2364, 558.250
2365, 558.926
2366, 561.363
2367, 544.990
2368, 544.893
2369, 545.283
2370, 545.770
2371, 546.452
2372, 547.329
2373, 548.401
2374, 549.668
2375, 551.130
2376, 552.787
2377, 554.638
2378, 556.685
2379, 558.250
2380, 558.926
2381, 561.363
2382, 544.990
2383, 544.893
2384, 545.283
2385, 545.770
2386, 546.452
2387, 547.329
2388, 548.401
2389, 549.668
2390, 551.130
2391, 552.787
2392, 554.638
2393, 556.685
2394, 558.250
2395, 558.926
2396, 544.990
2397, 544.893
2398, 545.283
2399, 545.770
2400, 546.452
2401, 547.329
2402, 548.401
2403, 549.668
2404, 551.130
2405, 552.787
2406, 554.638
2407, 556.685
2408, 558.250
2409, 558.926
2410, 544.990
2411, 544.893
2412, 545.283
2413, 545.770
2414, 546.452
2415, 547.329
2416, 548.401
2417, 549.668
2418, 551.130
2419, 552.787
2420, 554.638
2421, 556.685
2422, 558.250
2423, 558.926
2424, 544.990
2425, 544.893
2426, 545.283
2427, 545.770
2428, 546.452
2429, 547.329
2430, 548.401
2431, 549.668
2432, 551.130
2433, 552.787
2434, 554.638
2435, 556.685
2436, 558.250
2437, 558.926
2438, 544.990
2439, 544.893
2440, 545.283
2441, 545.770
2442, 546.452
2443, 547.329
2444, 548.401
2445, 549.668
2446, 551.130
2447, 552.787
2448, 554.638
2449, 556.685
2450, 558.250
2451, 558.926
2452, 544.990
2453, 544.893
2454, 545.283
2455, 545.770
2456, 546.452
2457, 547.329
2458, 548.401
2459, 549.668
2460, 551.130
2461, 552.787
2462, 554.638
2463, 556.685
2464, 558.250
2465, 558.926
2466, 544.990
2467, 544.893
2468, 545.283
2469, 545.770
2470, 546.452
2471, 547.329
2472, 548.401
2473, 549.668
2474, 551.130
2475, 552.787
2476, 554.638
2477, 556.685
2478, 558.250
2479, 558.926
2480, 544.990
2481, 544.893
2482, 545.283
2483, 545.770
2484, 546.452
2485, 547.329
2486, 548.401
2487, 549.668
2488, 551.130
2489, 552.787
2490, 554.638
2491, 556.685
2492, 558.250
2493, 558.926
2494, 544.990
2495, 544.893
2496, 545.283
2497, 545.770
2498, 546.452
2499, 547.329
2500, 548.401
2501, 549.668
2502, 551.130
2503, 552.787
2504, 554.638
2505, 556.685
2506, 558.250
2507, 558.926
2508, 544.990
2509, 544.893
2510, 545.283
2511, 545.770
2512, 546.452
2513, 547.329
2514, 548.401
2515, 549.668
2516, 551.130
2517, 552.787
2518, 554.638
2519, 556.685
2520, 558.250
2521, 544.990
2522, 544.893
2523, 545.283
2524, 545.770
2525, 546.452
2526, 547.329
2527, 548.401
2528, 549.668
2529, 551.130
2530, 552.787
2531, 554.638
2532, 556.685
2533, 558.250
*NODE FILE
U
*EL FILE
S
*EL PRINT, ELSET=DISC
S
*END STEP
