*HEADING
jetsuite2 turbine disc, axisymmetric (X = radius, Y = axis), SI units
*NODE
1, 7.5000000e-03, 0.0000000e+00, 0.0
2, 8.0000000e-03, 0.0000000e+00, 0.0
3, 8.0000000e-03, 5.0000000e-04, 0.0
4, 7.5000000e-03, 5.0000000e-04, 0.0
5, 8.5000000e-03, 0.0000000e+00, 0.0
6, 8.5000000e-03, 5.0000000e-04, 0.0
7, 9.0000000e-03, 0.0000000e+00, 0.0
8, 9.0000000e-03, 5.0000000e-04, 0.0
9, 9.5000000e-03, 0.0000000e+00, 0.0
10, 9.5000000e-03, 5.0000000e-04, 0.0
11, 1.0000000e-02, 0.0000000e+00, 0.0
12, 1.0000000e-02, 5.0000000e-04, 0.0
13, 1.0500000e-02, 0.0000000e+00, 0.0
14, 1.0500000e-02, 5.0000000e-04, 0.0
15, 1.1000000e-02, 0.0000000e+00, 0.0
16, 1.1000000e-02, 5.0000000e-04, 0.0
17, 1.1030671e-02, 0.0000000e+00, 0.0
18, 1.1030671e-02, 5.0000000e-04, 0.0
19, 8.0000000e-03, 1.0000000e-03, 0.0
20, 7.5000000e-03, 1.0000000e-03, 0.0
21, 8.5000000e-03, 1.0000000e-03, 0.0
22, 9.0000000e-03, 1.0000000e-03, 0.0
23, 9.5000000e-03, 1.0000000e-03, 0.0
24, 1.0000000e-02, 1.0000000e-03, 0.0
25, 1.0500000e-02, 1.0000000e-03, 0.0
26, 1.1000000e-02, 1.0000000e-03, 0.0
27, 1.1030671e-02, 1.0000000e-03, 0.0
28, 1.1500000e-02, 5.0000000e-04, 0.0
29, 1.1500000e-02, 1.0000000e-03, 0.0
30, 8.0000000e-03, 1.5000000e-03, 0.0
31, 7.5000000e-03, 1.5000000e-03, 0.0
32, 8.5000000e-03, 1.5000000e-03, 0.0
33, 9.0000000e-03, 1.5000000e-03, 0.0
34, 9.5000000e-03, 1.5000000e-03, 0.0
35, 1.0000000e-02, 1.5000000e-03, 0.0
36, 1.0500000e-02, 1.5000000e-03, 0.0
37, 1.1000000e-02, 1.5000000e-03, 0.0
38, 1.1030671e-02, 1.5000000e-03, 0.0
39, 1.1500000e-02, 1.5000000e-03, 0.0
40, 1.2000000e-02, 1.0000000e-03, 0.0
41, 1.2000000e-02, 1.5000000e-03, 0.0
42, 8.0000000e-03, 2.0000000e-03, 0.0
43, 7.5000000e-03, 2.0000000e-03, 0.0
44, 8.5000000e-03, 2.0000000e-03, 0.0
45, 9.0000000e-03, 2.0000000e-03, 0.0
46, 9.5000000e-03, 2.0000000e-03, 0.0
47, 1.0000000e-02, 2.0000000e-03, 0.0
48, 1.0500000e-02, 2.0000000e-03, 0.0
49, 1.1000000e-02, 2.0000000e-03, 0.0
50, 1.1030671e-02, 2.0000000e-03, 0.0
51, 1.1500000e-02, 2.0000000e-03, 0.0
52, 1.2000000e-02, 2.0000000e-03, 0.0
53, 8.0000000e-03, 2.5000000e-03, 0.0
54, 7.5000000e-03, 2.5000000e-03, 0.0
55, 8.5000000e-03, 2.5000000e-03, 0.0
56, 9.0000000e-03, 2.5000000e-03, 0.0
57, 9.5000000e-03, 2.5000000e-03, 0.0
58, 1.0000000e-02, 2.5000000e-03, 0.0
59, 1.0500000e-02, 2.5000000e-03, 0.0
60, 1.1000000e-02, 2.5000000e-03, 0.0
61, 1.1030671e-02, 2.5000000e-03, 0.0
62, 1.1500000e-02, 2.5000000e-03, 0.0
63, 1.2000000e-02, 2.5000000e-03, 0.0
64, 1.2500000e-02, 2.0000000e-03, 0.0
65, 1.2500000e-02, 2.5000000e-03, 0.0
66, 8.0000000e-03, 3.0000000e-03, 0.0
67, 7.5000000e-03, 3.0000000e-03, 0.0
68, 8.5000000e-03, 3.0000000e-03, 0.0
69, 9.0000000e-03, 3.0000000e-03, 0.0
70, 9.5000000e-03, 3.0000000e-03, 0.0
71, 1.0000000e-02, 3.0000000e-03, 0.0
72, 1.0500000e-02, 3.0000000e-03, 0.0
73, 1.1000000e-02, 3.0000000e-03, 0.0
74, 1.1030671e-02, 3.0000000e-03, 0.0
75, 1.1500000e-02, 3.0000000e-03, 0.0
76, 1.2000000e-02, 3.0000000e-03, 0.0
77, 1.2500000e-02, 3.0000000e-03, 0.0
78, 8.0000000e-03, 3.5000000e-03, 0.0
79, 7.5000000e-03, 3.5000000e-03, 0.0
80, 8.5000000e-03, 3.5000000e-03, 0.0
81, 9.0000000e-03, 3.5000000e-03, 0.0
82, 9.5000000e-03, 3.5000000e-03, 0.0
83, 1.0000000e-02, 3.5000000e-03, 0.0
84, 1.0500000e-02, 3.5000000e-03, 0.0
85, 1.1000000e-02, 3.5000000e-03, 0.0
86, 1.1030671e-02, 3.5000000e-03, 0.0
87, 1.1500000e-02, 3.5000000e-03, 0.0
88, 1.2000000e-02, 3.5000000e-03, 0.0
89, 1.2500000e-02, 3.5000000e-03, 0.0
90, 1.3000000e-02, 3.0000000e-03, 0.0
91, 1.3000000e-02, 3.5000000e-03, 0.0
92, 8.0000000e-03, 4.0000000e-03, 0.0
93, 7.5000000e-03, 4.0000000e-03, 0.0
94, 8.5000000e-03, 4.0000000e-03, 0.0
95, 9.0000000e-03, 4.0000000e-03, 0.0
96, 9.5000000e-03, 4.0000000e-03, 0.0
97, 1.0000000e-02, 4.0000000e-03, 0.0
98, 1.0500000e-02, 4.0000000e-03, 0.0
99, 1.1000000e-02, 4.0000000e-03, 0.0
100, 1.1030671e-02, 4.0000000e-03, 0.0
101, 1.1500000e-02, 4.0000000e-03, 0.0
102, 1.2000000e-02, 4.0000000e-03, 0.0
103, 1.2500000e-02, 4.0000000e-03, 0.0
104, 1.3000000e-02, 4.0000000e-03, 0.0
105, 8.0000000e-03, 4.5000000e-03, 0.0
106, 7.5000000e-03, 4.5000000e-03, 0.0
107, 8.5000000e-03, 4.5000000e-03, 0.0
108, 9.0000000e-03, 4.5000000e-03, 0.0
109, 9.5000000e-03, 4.5000000e-03, 0.0
110, 1.0000000e-02, 4.5000000e-03, 0.0
111, 1.0500000e-02, 4.5000000e-03, 0.0
112, 1.1000000e-02, 4.5000000e-03, 0.0
113, 1.1030671e-02, 4.5000000e-03, 0.0
114, 1.1500000e-02, 4.5000000e-03, 0.0
115, 1.2000000e-02, 4.5000000e-03, 0.0
116, 1.2500000e-02, 4.5000000e-03, 0.0
117, 1.3000000e-02, 4.5000000e-03, 0.0
118, 1.3500000e-02, 4.0000000e-03, 0.0
119, 1.3500000e-02, 4.5000000e-03, 0.0
120, 8.0000000e-03, 5.0000000e-03, 0.0
121, 7.5000000e-03, 5.0000000e-03, 0.0
122, 8.5000000e-03, 5.0000000e-03, 0.0
123, 9.0000000e-03, 5.0000000e-03, 0.0
124, 9.5000000e-03, 5.0000000e-03, 0.0
125, 1.0000000e-02, 5.0000000e-03, 0.0
126, 1.0500000e-02, 5.0000000e-03, 0.0
127, 1.1000000e-02, 5.0000000e-03, 0.0
128, 1.1030671e-02, 5.0000000e-03, 0.0
129, 1.1500000e-02, 5.0000000e-03, 0.0
130, 1.2000000e-02, 5.0000000e-03, 0.0
131, 1.2500000e-02, 5.0000000e-03, 0.0
132, 1.3000000e-02, 5.0000000e-03, 0.0
133, 1.3500000e-02, 5.0000000e-03, 0.0
134, 1.4000000e-02, 4.5000000e-03, 0.0
135, 1.4000000e-02, 5.0000000e-03, 0.0
136, 8.0000000e-03, 5.5000000e-03, 0.0
137, 7.5000000e-03, 5.5000000e-03, 0.0
138, 8.5000000e-03, 5.5000000e-03, 0.0
139, 9.0000000e-03, 5.5000000e-03, 0.0
140, 9.5000000e-03, 5.5000000e-03, 0.0
141, 1.0000000e-02, 5.5000000e-03, 0.0
142, 1.0500000e-02, 5.5000000e-03, 0.0
143, 1.1000000e-02, 5.5000000e-03, 0.0
144, 1.1030671e-02, 5.5000000e-03, 0.0
145, 1.1500000e-02, 5.5000000e-03, 0.0
146, 1.2000000e-02, 5.5000000e-03, 0.0
147, 1.2500000e-02, 5.5000000e-03, 0.0
148, 1.3000000e-02, 5.5000000e-03, 0.0
149, 1.3500000e-02, 5.5000000e-03, 0.0
150, 1.4000000e-02, 5.5000000e-03, 0.0
151, 8.0000000e-03, 6.0000000e-03, 0.0
152, 7.5000000e-03, 6.0000000e-03, 0.0
153, 8.5000000e-03, 6.0000000e-03, 0.0
154, 9.0000000e-03, 6.0000000e-03, 0.0
155, 9.5000000e-03, 6.0000000e-03, 0.0
156, 1.0000000e-02, 6.0000000e-03, 0.0
157, 1.0500000e-02, 6.0000000e-03, 0.0
158, 1.1000000e-02, 6.0000000e-03, 0.0
159, 1.1030671e-02, 6.0000000e-03, 0.0
160, 1.1500000e-02, 6.0000000e-03, 0.0
161, 1.2000000e-02, 6.0000000e-03, 0.0
162, 1.2500000e-02, 6.0000000e-03, 0.0
163, 1.3000000e-02, 6.0000000e-03, 0.0
164, 1.3500000e-02, 6.0000000e-03, 0.0
165, 1.4000000e-02, 6.0000000e-03, 0.0
166, 1.4500000e-02, 5.5000000e-03, 0.0
167, 1.4500000e-02, 6.0000000e-03, 0.0
168, 8.0000000e-03, 6.3070511e-03, 0.0
169, 7.5000000e-03, 6.3070511e-03, 0.0
170, 8.5000000e-03, 6.3070511e-03, 0.0
171, 9.0000000e-03, 6.3070511e-03, 0.0
172, 9.5000000e-03, 6.3070511e-03, 0.0
173, 1.0000000e-02, 6.3070511e-03, 0.0
174, 1.0500000e-02, 6.3070511e-03, 0.0
175, 1.1000000e-02, 6.3070511e-03, 0.0
176, 1.1030671e-02, 6.3070511e-03, 0.0
177, 1.1500000e-02, 6.3070511e-03, 0.0
178, 1.2000000e-02, 6.3070511e-03, 0.0
179, 1.2500000e-02, 6.3070511e-03, 0.0
180, 1.3000000e-02, 6.3070511e-03, 0.0
181, 1.3500000e-02, 6.3070511e-03, 0.0
182, 1.4000000e-02, 6.3070511e-03, 0.0
183, 1.4500000e-02, 6.3070511e-03, 0.0
184, 1.4707561e-02, 6.0000000e-03, 0.0
185, 1.4707561e-02, 6.3070511e-03, 0.0
186, 8.0000000e-03, 6.5000000e-03, 0.0
187, 7.5000000e-03, 6.5000000e-03, 0.0
188, 8.5000000e-03, 6.5000000e-03, 0.0
189, 9.0000000e-03, 6.5000000e-03, 0.0
190, 9.5000000e-03, 6.5000000e-03, 0.0
191, 1.0000000e-02, 6.5000000e-03, 0.0
192, 1.0500000e-02, 6.5000000e-03, 0.0
193, 1.1000000e-02, 6.5000000e-03, 0.0
194, 1.1030671e-02, 6.5000000e-03, 0.0
195, 1.1500000e-02, 6.5000000e-03, 0.0
196, 1.2000000e-02, 6.5000000e-03, 0.0
197, 1.2500000e-02, 6.5000000e-03, 0.0
198, 1.3000000e-02, 6.5000000e-03, 0.0
199, 1.3500000e-02, 6.5000000e-03, 0.0
200, 1.4000000e-02, 6.5000000e-03, 0.0
201, 1.4500000e-02, 6.5000000e-03, 0.0
202, 1.4707561e-02, 6.5000000e-03, 0.0
203, 8.0000000e-03, 7.0000000e-03, 0.0
204, 7.5000000e-03, 7.0000000e-03, 0.0
205, 8.5000000e-03, 7.0000000e-03, 0.0
206, 9.0000000e-03, 7.0000000e-03, 0.0
207, 9.5000000e-03, 7.0000000e-03, 0.0
208, 1.0000000e-02, 7.0000000e-03, 0.0
209, 1.0500000e-02, 7.0000000e-03, 0.0
210, 1.1000000e-02, 7.0000000e-03, 0.0
211, 1.1030671e-02, 7.0000000e-03, 0.0
212, 1.1500000e-02, 7.0000000e-03, 0.0
213, 1.2000000e-02, 7.0000000e-03, 0.0
214, 1.2500000e-02, 7.0000000e-03, 0.0
215, 1.3000000e-02, 7.0000000e-03, 0.0
216, 1.3500000e-02, 7.0000000e-03, 0.0
217, 1.4000000e-02, 7.0000000e-03, 0.0
218, 1.4500000e-02, 7.0000000e-03, 0.0
219, 1.4707561e-02, 7.0000000e-03, 0.0
220, 8.0000000e-03, 7.5000000e-03, 0.0
221, 7.5000000e-03, 7.5000000e-03, 0.0
222, 8.5000000e-03, 7.5000000e-03, 0.0
223, 9.0000000e-03, 7.5000000e-03, 0.0
224, 9.5000000e-03, 7.5000000e-03, 0.0
225, 1.0000000e-02, 7.5000000e-03, 0.0
226, 1.0500000e-02, 7.5000000e-03, 0.0
227, 1.1000000e-02, 7.5000000e-03, 0.0
228, 1.1030671e-02, 7.5000000e-03, 0.0
229, 1.1500000e-02, 7.5000000e-03, 0.0
230, 1.2000000e-02, 7.5000000e-03, 0.0
231, 1.2500000e-02, 7.5000000e-03, 0.0
232, 1.3000000e-02, 7.5000000e-03, 0.0
233, 1.3500000e-02, 7.5000000e-03, 0.0
234, 1.4000000e-02, 7.5000000e-03, 0.0
235, 1.4500000e-02, 7.5000000e-03, 0.0
236, 1.4707561e-02, 7.5000000e-03, 0.0
237, 8.0000000e-03, 8.0000000e-03, 0.0
238, 7.5000000e-03, 8.0000000e-03, 0.0
239, 8.5000000e-03, 8.0000000e-03, 0.0
240, 9.0000000e-03, 8.0000000e-03, 0.0
241, 9.5000000e-03, 8.0000000e-03, 0.0
242, 1.0000000e-02, 8.0000000e-03, 0.0
243, 1.0500000e-02, 8.0000000e-03, 0.0
244, 1.1000000e-02, 8.0000000e-03, 0.0
245, 1.1030671e-02, 8.0000000e-03, 0.0
246, 1.1500000e-02, 8.0000000e-03, 0.0
247, 1.2000000e-02, 8.0000000e-03, 0.0
248, 1.2500000e-02, 8.0000000e-03, 0.0
249, 1.3000000e-02, 8.0000000e-03, 0.0
250, 1.3500000e-02, 8.0000000e-03, 0.0
251, 1.4000000e-02, 8.0000000e-03, 0.0
252, 1.4500000e-02, 8.0000000e-03, 0.0
253, 1.4707561e-02, 8.0000000e-03, 0.0
254, 8.0000000e-03, 8.5000000e-03, 0.0
255, 7.5000000e-03, 8.5000000e-03, 0.0
256, 8.5000000e-03, 8.5000000e-03, 0.0
257, 9.0000000e-03, 8.5000000e-03, 0.0
258, 9.5000000e-03, 8.5000000e-03, 0.0
259, 1.0000000e-02, 8.5000000e-03, 0.0
260, 1.0500000e-02, 8.5000000e-03, 0.0
261, 1.1000000e-02, 8.5000000e-03, 0.0
262, 1.1030671e-02, 8.5000000e-03, 0.0
263, 1.1500000e-02, 8.5000000e-03, 0.0
264, 1.2000000e-02, 8.5000000e-03, 0.0
265, 1.2500000e-02, 8.5000000e-03, 0.0
266, 1.3000000e-02, 8.5000000e-03, 0.0
267, 1.3500000e-02, 8.5000000e-03, 0.0
268, 1.4000000e-02, 8.5000000e-03, 0.0
269, 1.4500000e-02, 8.5000000e-03, 0.0
270, 1.4707561e-02, 8.5000000e-03, 0.0
271, 1.4855500e-02, 8.0000000e-03, 0.0
272, 1.4855500e-02, 8.5000000e-03, 0.0
273, 8.0000000e-03, 9.0000000e-03, 0.0
274, 7.5000000e-03, 9.0000000e-03, 0.0
275, 8.5000000e-03, 9.0000000e-03, 0.0
276, 9.0000000e-03, 9.0000000e-03, 0.0
277, 9.5000000e-03, 9.0000000e-03, 0.0
278, 1.0000000e-02, 9.0000000e-03, 0.0
279, 1.0500000e-02, 9.0000000e-03, 0.0
280, 1.1000000e-02, 9.0000000e-03, 0.0
281, 1.1030671e-02, 9.0000000e-03, 0.0
282, 1.1500000e-02, 9.0000000e-03, 0.0
283, 1.2000000e-02, 9.0000000e-03, 0.0
284, 1.2500000e-02, 9.0000000e-03, 0.0
285, 1.3000000e-02, 9.0000000e-03, 0.0
286, 1.3500000e-02, 9.0000000e-03, 0.0
287, 1.4000000e-02, 9.0000000e-03, 0.0
288, 1.4500000e-02, 9.0000000e-03, 0.0
289, 1.4707561e-02, 9.0000000e-03, 0.0
290, 1.4855500e-02, 9.0000000e-03, 0.0
291, 8.0000000e-03, 9.3792596e-03, 0.0
292, 7.5000000e-03, 9.3792596e-03, 0.0
293, 8.5000000e-03, 9.3792596e-03, 0.0
294, 9.0000000e-03, 9.3792596e-03, 0.0
295, 9.5000000e-03, 9.3792596e-03, 0.0
296, 1.0000000e-02, 9.3792596e-03, 0.0
297, 1.0500000e-02, 9.3792596e-03, 0.0
298, 1.1000000e-02, 9.3792596e-03, 0.0
299, 1.1030671e-02, 9.3792596e-03, 0.0
300, 1.1500000e-02, 9.3792596e-03, 0.0
301, 1.2000000e-02, 9.3792596e-03, 0.0
302, 1.2500000e-02, 9.3792596e-03, 0.0
303, 1.3000000e-02, 9.3792596e-03, 0.0
304, 1.3500000e-02, 9.3792596e-03, 0.0
305, 1.4000000e-02, 9.3792596e-03, 0.0
306, 1.4500000e-02, 9.3792596e-03, 0.0
307, 1.4707561e-02, 9.3792596e-03, 0.0
308, 1.4855500e-02, 9.3792596e-03, 0.0
309, 8.0000000e-03, 9.5000000e-03, 0.0
310, 7.5000000e-03, 9.5000000e-03, 0.0
311, 8.5000000e-03, 9.5000000e-03, 0.0
312, 9.0000000e-03, 9.5000000e-03, 0.0
313, 9.5000000e-03, 9.5000000e-03, 0.0
314, 1.0000000e-02, 9.5000000e-03, 0.0
315, 1.0500000e-02, 9.5000000e-03, 0.0
316, 1.1000000e-02, 9.5000000e-03, 0.0
317, 1.1030671e-02, 9.5000000e-03, 0.0
318, 1.1500000e-02, 9.5000000e-03, 0.0
319, 1.2000000e-02, 9.5000000e-03, 0.0
320, 1.2500000e-02, 9.5000000e-03, 0.0
321, 1.3000000e-02, 9.5000000e-03, 0.0
322, 1.3500000e-02, 9.5000000e-03, 0.0
323, 1.4000000e-02, 9.5000000e-03, 0.0
324, 1.4500000e-02, 9.5000000e-03, 0.0
325, 1.4707561e-02, 9.5000000e-03, 0.0
326, 1.4855500e-02, 9.5000000e-03, 0.0
327, 8.0000000e-03, 1.0000000e-02, 0.0
328, 7.5000000e-03, 1.0000000e-02, 0.0
329, 8.5000000e-03, 1.0000000e-02, 0.0
330, 9.0000000e-03, 1.0000000e-02, 0.0
331, 9.5000000e-03, 1.0000000e-02, 0.0
332, 1.0000000e-02, 1.0000000e-02, 0.0
333, 1.0500000e-02, 1.0000000e-02, 0.0
334, 1.1000000e-02, 1.0000000e-02, 0.0
335, 1.1030671e-02, 1.0000000e-02, 0.0
336, 1.1500000e-02, 1.0000000e-02, 0.0
337, 1.2000000e-02, 1.0000000e-02, 0.0
338, 1.2500000e-02, 1.0000000e-02, 0.0
339, 1.3000000e-02, 1.0000000e-02, 0.0
340, 1.3500000e-02, 1.0000000e-02, 0.0
341, 1.4000000e-02, 1.0000000e-02, 0.0
342, 1.4500000e-02, 1.0000000e-02, 0.0
343, 1.4707561e-02, 1.0000000e-02, 0.0
344, 1.4855500e-02, 1.0000000e-02, 0.0
345, 8.0000000e-03, 1.0500000e-02, 0.0
346, 7.5000000e-03, 1.0500000e-02, 0.0
347, 8.5000000e-03, 1.0500000e-02, 0.0
348, 9.0000000e-03, 1.0500000e-02, 0.0
349, 9.5000000e-03, 1.0500000e-02, 0.0
350, 1.0000000e-02, 1.0500000e-02, 0.0
351, 1.0500000e-02, 1.0500000e-02, 0.0
352, 1.1000000e-02, 1.0500000e-02, 0.0
353, 1.1030671e-02, 1.0500000e-02, 0.0
354, 1.1500000e-02, 1.0500000e-02, 0.0
355, 1.2000000e-02, 1.0500000e-02, 0.0
356, 1.2500000e-02, 1.0500000e-02, 0.0
357, 1.3000000e-02, 1.0500000e-02, 0.0
358, 1.3500000e-02, 1.0500000e-02, 0.0
359, 1.4000000e-02, 1.0500000e-02, 0.0
360, 1.4500000e-02, 1.0500000e-02, 0.0
361, 1.4707561e-02, 1.0500000e-02, 0.0
362, 1.4855500e-02, 1.0500000e-02, 0.0
363, 1.5000000e-02, 1.0000000e-02, 0.0
364, 1.5000000e-02, 1.0500000e-02, 0.0
365, 8.0000000e-03, 1.1000000e-02, 0.0
366, 7.5000000e-03, 1.1000000e-02, 0.0
367, 8.5000000e-03, 1.1000000e-02, 0.0
368, 9.0000000e-03, 1.1000000e-02, 0.0
369, 9.5000000e-03, 1.1000000e-02, 0.0
370, 1.0000000e-02, 1.1000000e-02, 0.0
371, 1.0500000e-02, 1.1000000e-02, 0.0
372, 1.1000000e-02, 1.1000000e-02, 0.0
373, 1.1030671e-02, 1.1000000e-02, 0.0
374, 1.1500000e-02, 1.1000000e-02, 0.0
375, 1.2000000e-02, 1.1000000e-02, 0.0
376, 1.2500000e-02, 1.1000000e-02, 0.0
377, 1.3000000e-02, 1.1000000e-02, 0.0
378, 1.3500000e-02, 1.1000000e-02, 0.0
379, 1.4000000e-02, 1.1000000e-02, 0.0
380, 1.4500000e-02, 1.1000000e-02, 0.0
381, 1.4707561e-02, 1.1000000e-02, 0.0
382, 1.4855500e-02, 1.1000000e-02, 0.0
383, 1.5000000e-02, 1.1000000e-02, 0.0
384, 8.0000000e-03, 1.1500000e-02, 0.0
385, 7.5000000e-03, 1.1500000e-02, 0.0
386, 8.5000000e-03, 1.1500000e-02, 0.0
387, 9.0000000e-03, 1.1500000e-02, 0.0
388, 9.5000000e-03, 1.1500000e-02, 0.0
389, 1.0000000e-02, 1.1500000e-02, 0.0
390, 1.0500000e-02, 1.1500000e-02, 0.0
391, 1.1000000e-02, 1.1500000e-02, 0.0
392, 1.1030671e-02, 1.1500000e-02, 0.0
393, 1.1500000e-02, 1.1500000e-02, 0.0
394, 1.2000000e-02, 1.1500000e-02, 0.0
395, 1.2500000e-02, 1.1500000e-02, 0.0
396, 1.3000000e-02, 1.1500000e-02, 0.0
397, 1.3500000e-02, 1.1500000e-02, 0.0
398, 1.4000000e-02, 1.1500000e-02, 0.0
399, 1.4500000e-02, 1.1500000e-02, 0.0
400, 1.4707561e-02, 1.1500000e-02, 0.0
401, 1.4855500e-02, 1.1500000e-02, 0.0
402, 1.5000000e-02, 1.1500000e-02, 0.0
403, 8.0000000e-03, 1.2000000e-02, 0.0
404, 7.5000000e-03, 1.2000000e-02, 0.0
405, 8.5000000e-03, 1.2000000e-02, 0.0
406, 9.0000000e-03, 1.2000000e-02, 0.0
407, 9.5000000e-03, 1.2000000e-02, 0.0
408, 1.0000000e-02, 1.2000000e-02, 0.0
409, 1.0500000e-02, 1.2000000e-02, 0.0
410, 1.1000000e-02, 1.2000000e-02, 0.0
411, 1.1030671e-02, 1.2000000e-02, 0.0
412, 1.1500000e-02, 1.2000000e-02, 0.0
413, 1.2000000e-02, 1.2000000e-02, 0.0
414, 1.2500000e-02, 1.2000000e-02, 0.0
415, 1.3000000e-02, 1.2000000e-02, 0.0
416, 1.3500000e-02, 1.2000000e-02, 0.0
417, 1.4000000e-02, 1.2000000e-02, 0.0
418, 1.4500000e-02, 1.2000000e-02, 0.0
419, 1.4707561e-02, 1.2000000e-02, 0.0
420, 1.4855500e-02, 1.2000000e-02, 0.0
421, 1.5000000e-02, 1.2000000e-02, 0.0
422, 1.5297833e-02, 1.1500000e-02, 0.0
423, 1.5297833e-02, 1.2000000e-02, 0.0
424, 8.0000000e-03, 1.2381124e-02, 0.0
425, 7.5000000e-03, 1.2381124e-02, 0.0
426, 8.5000000e-03, 1.2381124e-02, 0.0
427, 9.0000000e-03, 1.2381124e-02, 0.0
428, 9.5000000e-03, 1.2381124e-02, 0.0
429, 1.0000000e-02, 1.2381124e-02, 0.0
430, 1.0500000e-02, 1.2381124e-02, 0.0
431, 1.1000000e-02, 1.2381124e-02, 0.0
432, 1.1030671e-02, 1.2381124e-02, 0.0
433, 1.1500000e-02, 1.2381124e-02, 0.0
434, 1.2000000e-02, 1.2381124e-02, 0.0
435, 1.2500000e-02, 1.2381124e-02, 0.0
436, 1.3000000e-02, 1.2381124e-02, 0.0
437, 1.3500000e-02, 1.2381124e-02, 0.0
438, 1.4000000e-02, 1.2381124e-02, 0.0
439, 1.4500000e-02, 1.2381124e-02, 0.0
440, 1.4707561e-02, 1.2381124e-02, 0.0
441, 1.4855500e-02, 1.2381124e-02, 0.0
442, 1.5000000e-02, 1.2381124e-02, 0.0
443, 1.5297833e-02, 1.2381124e-02, 0.0
444, 8.0000000e-03, 1.2500000e-02, 0.0
445, 7.5000000e-03, 1.2500000e-02, 0.0
446, 8.5000000e-03, 1.2500000e-02, 0.0
447, 9.0000000e-03, 1.2500000e-02, 0.0
448, 9.5000000e-03, 1.2500000e-02, 0.0
449, 1.0000000e-02, 1.2500000e-02, 0.0
450, 1.0500000e-02, 1.2500000e-02, 0.0
451, 1.1000000e-02, 1.2500000e-02, 0.0
452, 1.1030671e-02, 1.2500000e-02, 0.0
453, 1.1500000e-02, 1.2500000e-02, 0.0
454, 1.2000000e-02, 1.2500000e-02, 0.0
455, 1.2500000e-02, 1.2500000e-02, 0.0
456, 1.3000000e-02, 1.2500000e-02, 0.0
457, 1.3500000e-02, 1.2500000e-02, 0.0
458, 1.4000000e-02, 1.2500000e-02, 0.0
459, 1.4500000e-02, 1.2500000e-02, 0.0
460, 1.4707561e-02, 1.2500000e-02, 0.0
461, 1.4855500e-02, 1.2500000e-02, 0.0
462, 1.5000000e-02, 1.2500000e-02, 0.0
463, 1.5297833e-02, 1.2500000e-02, 0.0
464, 8.0000000e-03, 1.3000000e-02, 0.0
465, 7.5000000e-03, 1.3000000e-02, 0.0
466, 8.5000000e-03, 1.3000000e-02, 0.0
467, 9.0000000e-03, 1.3000000e-02, 0.0
468, 9.5000000e-03, 1.3000000e-02, 0.0
469, 1.0000000e-02, 1.3000000e-02, 0.0
470, 1.0500000e-02, 1.3000000e-02, 0.0
471, 1.1000000e-02, 1.3000000e-02, 0.0
472, 1.1030671e-02, 1.3000000e-02, 0.0
473, 1.1500000e-02, 1.3000000e-02, 0.0
474, 1.2000000e-02, 1.3000000e-02, 0.0
475, 1.2500000e-02, 1.3000000e-02, 0.0
476, 1.3000000e-02, 1.3000000e-02, 0.0
477, 1.3500000e-02, 1.3000000e-02, 0.0
478, 1.4000000e-02, 1.3000000e-02, 0.0
479, 1.4500000e-02, 1.3000000e-02, 0.0
480, 1.4707561e-02, 1.3000000e-02, 0.0
481, 1.4855500e-02, 1.3000000e-02, 0.0
482, 1.5000000e-02, 1.3000000e-02, 0.0
483, 1.5297833e-02, 1.3000000e-02, 0.0
484, 8.0000000e-03, 1.3500000e-02, 0.0
485, 7.5000000e-03, 1.3500000e-02, 0.0
486, 8.5000000e-03, 1.3500000e-02, 0.0
487, 9.0000000e-03, 1.3500000e-02, 0.0
488, 9.5000000e-03, 1.3500000e-02, 0.0
489, 1.0000000e-02, 1.3500000e-02, 0.0
490, 1.0500000e-02, 1.3500000e-02, 0.0
491, 1.1000000e-02, 1.3500000e-02, 0.0
492, 1.1030671e-02, 1.3500000e-02, 0.0
493, 1.1500000e-02, 1.3500000e-02, 0.0
494, 1.2000000e-02, 1.3500000e-02, 0.0
495, 1.2500000e-02, 1.3500000e-02, 0.0
496, 1.3000000e-02, 1.3500000e-02, 0.0
497, 1.3500000e-02, 1.3500000e-02, 0.0
498, 1.4000000e-02, 1.3500000e-02, 0.0
499, 1.4500000e-02, 1.3500000e-02, 0.0
500, 1.4707561e-02, 1.3500000e-02, 0.0
501, 1.4855500e-02, 1.3500000e-02, 0.0
502, 1.5000000e-02, 1.3500000e-02, 0.0
503, 1.5297833e-02, 1.3500000e-02, 0.0
504, 1.5500000e-02, 1.3000000e-02, 0.0
505, 1.5500000e-02, 1.3500000e-02, 0.0
506, 8.0000000e-03, 1.4000000e-02, 0.0
507, 7.5000000e-03, 1.4000000e-02, 0.0
508, 8.5000000e-03, 1.4000000e-02, 0.0
509, 9.0000000e-03, 1.4000000e-02, 0.0
510, 9.5000000e-03, 1.4000000e-02, 0.0
511, 1.0000000e-02, 1.4000000e-02, 0.0
512, 1.0500000e-02, 1.4000000e-02, 0.0
513, 1.1000000e-02, 1.4000000e-02, 0.0
514, 1.1030671e-02, 1.4000000e-02, 0.0
515, 1.1500000e-02, 1.4000000e-02, 0.0
516, 1.2000000e-02, 1.4000000e-02, 0.0
517, 1.2500000e-02, 1.4000000e-02, 0.0
518, 1.3000000e-02, 1.4000000e-02, 0.0
519, 1.3500000e-02, 1.4000000e-02, 0.0
520, 1.4000000e-02, 1.4000000e-02, 0.0
521, 1.4500000e-02, 1.4000000e-02, 0.0
522, 1.4707561e-02, 1.4000000e-02, 0.0
523, 1.4855500e-02, 1.4000000e-02, 0.0
524, 1.5000000e-02, 1.4000000e-02, 0.0
525, 1.5297833e-02, 1.4000000e-02, 0.0
526, 1.5500000e-02, 1.4000000e-02, 0.0
527, 8.0000000e-03, 1.4500000e-02, 0.0
528, 7.5000000e-03, 1.4500000e-02, 0.0
529, 8.5000000e-03, 1.4500000e-02, 0.0
530, 9.0000000e-03, 1.4500000e-02, 0.0
531, 9.5000000e-03, 1.4500000e-02, 0.0
532, 1.0000000e-02, 1.4500000e-02, 0.0
533, 1.0500000e-02, 1.4500000e-02, 0.0
534, 1.1000000e-02, 1.4500000e-02, 0.0
535, 1.1030671e-02, 1.4500000e-02, 0.0
536, 1.1500000e-02, 1.4500000e-02, 0.0
537, 1.2000000e-02, 1.4500000e-02, 0.0
538, 1.2500000e-02, 1.4500000e-02, 0.0
539, 1.3000000e-02, 1.4500000e-02, 0.0
540, 1.3500000e-02, 1.4500000e-02, 0.0
541, 1.4000000e-02, 1.4500000e-02, 0.0
542, 1.4500000e-02, 1.4500000e-02, 0.0
543, 1.4707561e-02, 1.4500000e-02, 0.0
544, 1.4855500e-02, 1.4500000e-02, 0.0
545, 1.5000000e-02, 1.4500000e-02, 0.0
546, 1.5297833e-02, 1.4500000e-02, 0.0
547, 1.5500000e-02, 1.4500000e-02, 0.0
548, 1.6000000e-02, 1.4000000e-02, 0.0
549, 1.6000000e-02, 1.4500000e-02, 0.0
550, 8.0000000e-03, 1.5000000e-02, 0.0
551, 7.5000000e-03, 1.5000000e-02, 0.0
552, 8.5000000e-03, 1.5000000e-02, 0.0
553, 9.0000000e-03, 1.5000000e-02, 0.0
554, 9.5000000e-03, 1.5000000e-02, 0.0
555, 1.0000000e-02, 1.5000000e-02, 0.0
556, 1.0500000e-02, 1.5000000e-02, 0.0
557, 1.1000000e-02, 1.5000000e-02, 0.0
558, 1.1030671e-02, 1.5000000e-02, 0.0
559, 1.1500000e-02, 1.5000000e-02, 0.0
560, 1.2000000e-02, 1.5000000e-02, 0.0
561, 1.2500000e-02, 1.5000000e-02, 0.0
562, 1.3000000e-02, 1.5000000e-02, 0.0
563, 1.3500000e-02, 1.5000000e-02, 0.0
564, 1.4000000e-02, 1.5000000e-02, 0.0
565, 1.4500000e-02, 1.5000000e-02, 0.0
566, 1.4707561e-02, 1.5000000e-02, 0.0
567, 1.4855500e-02, 1.5000000e-02, 0.0
568, 1.5000000e-02, 1.5000000e-02, 0.0
569, 1.5297833e-02, 1.5000000e-02, 0.0
570, 1.5500000e-02, 1.5000000e-02, 0.0
571, 1.6000000e-02, 1.5000000e-02, 0.0
572, 8.0000000e-03, 1.5301702e-02, 0.0
573, 7.5000000e-03, 1.5301702e-02, 0.0
574, 8.5000000e-03, 1.5301702e-02, 0.0
575, 9.0000000e-03, 1.5301702e-02, 0.0
576, 9.5000000e-03, 1.5301702e-02, 0.0
577, 1.0000000e-02, 1.5301702e-02, 0.0
578, 1.0500000e-02, 1.5301702e-02, 0.0
579, 1.1000000e-02, 1.5301702e-02, 0.0
580, 1.1030671e-02, 1.5301702e-02, 0.0
581, 1.1500000e-02, 1.5301702e-02, 0.0
582, 1.2000000e-02, 1.5301702e-02, 0.0
583, 1.2500000e-02, 1.5301702e-02, 0.0
584, 1.3000000e-02, 1.5301702e-02, 0.0
585, 1.3500000e-02, 1.5301702e-02, 0.0
586, 1.4000000e-02, 1.5301702e-02, 0.0
587, 1.4500000e-02, 1.5301702e-02, 0.0
588, 1.4707561e-02, 1.5301702e-02, 0.0
589, 1.4855500e-02, 1.5301702e-02, 0.0
590, 1.5000000e-02, 1.5301702e-02, 0.0
591, 1.5297833e-02, 1.5301702e-02, 0.0
592, 1.5500000e-02, 1.5301702e-02, 0.0
593, 1.6000000e-02, 1.5301702e-02, 0.0
594, 8.0000000e-03, 1.5500000e-02, 0.0
595, 7.5000000e-03, 1.5500000e-02, 0.0
596, 8.5000000e-03, 1.5500000e-02, 0.0
597, 9.0000000e-03, 1.5500000e-02, 0.0
598, 9.5000000e-03, 1.5500000e-02, 0.0
599, 1.0000000e-02, 1.5500000e-02, 0.0
600, 1.0500000e-02, 1.5500000e-02, 0.0
601, 1.1000000e-02, 1.5500000e-02, 0.0
602, 1.1030671e-02, 1.5500000e-02, 0.0
603, 1.1500000e-02, 1.5500000e-02, 0.0
604, 1.2000000e-02, 1.5500000e-02, 0.0
605, 1.2500000e-02, 1.5500000e-02, 0.0
606, 1.3000000e-02, 1.5500000e-02, 0.0
607, 1.3500000e-02, 1.5500000e-02, 0.0
608, 1.4000000e-02, 1.5500000e-02, 0.0
609, 1.4500000e-02, 1.5500000e-02, 0.0
610, 1.4707561e-02, 1.5500000e-02, 0.0
611, 1.4855500e-02, 1.5500000e-02, 0.0
612, 1.5000000e-02, 1.5500000e-02, 0.0
613, 1.5297833e-02, 1.5500000e-02, 0.0
614, 1.5500000e-02, 1.5500000e-02, 0.0
615, 1.6000000e-02, 1.5500000e-02, 0.0
616, 1.6032328e-02, 1.5301702e-02, 0.0
617, 1.6032328e-02, 1.5500000e-02, 0.0
618, 8.0000000e-03, 1.6000000e-02, 0.0
619, 7.5000000e-03, 1.6000000e-02, 0.0
620, 8.5000000e-03, 1.6000000e-02, 0.0
621, 9.0000000e-03, 1.6000000e-02, 0.0
622, 9.5000000e-03, 1.6000000e-02, 0.0
623, 1.0000000e-02, 1.6000000e-02, 0.0
624, 1.0500000e-02, 1.6000000e-02, 0.0
625, 1.1000000e-02, 1.6000000e-02, 0.0
626, 1.1030671e-02, 1.6000000e-02, 0.0
627, 1.1500000e-02, 1.6000000e-02, 0.0
628, 1.2000000e-02, 1.6000000e-02, 0.0
629, 1.2500000e-02, 1.6000000e-02, 0.0
630, 1.3000000e-02, 1.6000000e-02, 0.0
631, 1.3500000e-02, 1.6000000e-02, 0.0
632, 1.4000000e-02, 1.6000000e-02, 0.0
633, 1.4500000e-02, 1.6000000e-02, 0.0
634, 1.4707561e-02, 1.6000000e-02, 0.0
635, 1.4855500e-02, 1.6000000e-02, 0.0
636, 1.5000000e-02, 1.6000000e-02, 0.0
637, 1.5297833e-02, 1.6000000e-02, 0.0
638, 1.5500000e-02, 1.6000000e-02, 0.0
639, 1.6000000e-02, 1.6000000e-02, 0.0
640, 1.6032328e-02, 1.6000000e-02, 0.0
641, 8.0000000e-03, 1.6500000e-02, 0.0
642, 7.5000000e-03, 1.6500000e-02, 0.0
643, 8.5000000e-03, 1.6500000e-02, 0.0
644, 9.0000000e-03, 1.6500000e-02, 0.0
645, 9.5000000e-03, 1.6500000e-02, 0.0
646, 1.0000000e-02, 1.6500000e-02, 0.0
647, 1.0500000e-02, 1.6500000e-02, 0.0
648, 1.1000000e-02, 1.6500000e-02, 0.0
649, 1.1030671e-02, 1.6500000e-02, 0.0
650, 1.1500000e-02, 1.6500000e-02, 0.0
651, 1.2000000e-02, 1.6500000e-02, 0.0
652, 1.2500000e-02, 1.6500000e-02, 0.0
653, 1.3000000e-02, 1.6500000e-02, 0.0
654, 1.3500000e-02, 1.6500000e-02, 0.0
655, 1.4000000e-02, 1.6500000e-02, 0.0
656, 1.4500000e-02, 1.6500000e-02, 0.0
657, 1.4707561e-02, 1.6500000e-02, 0.0
658, 1.4855500e-02, 1.6500000e-02, 0.0
659, 1.5000000e-02, 1.6500000e-02, 0.0
660, 1.5297833e-02, 1.6500000e-02, 0.0
661, 1.5500000e-02, 1.6500000e-02, 0.0
662, 1.6000000e-02, 1.6500000e-02, 0.0
663, 1.6032328e-02, 1.6500000e-02, 0.0
664, 1.6500000e-02, 1.6000000e-02, 0.0
665, 1.6500000e-02, 1.6500000e-02, 0.0
666, 8.0000000e-03, 1.7000000e-02, 0.0
667, 7.5000000e-03, 1.7000000e-02, 0.0
668, 8.5000000e-03, 1.7000000e-02, 0.0
669, 9.0000000e-03, 1.7000000e-02, 0.0
670, 9.5000000e-03, 1.7000000e-02, 0.0
671, 1.0000000e-02, 1.7000000e-02, 0.0
672, 1.0500000e-02, 1.7000000e-02, 0.0
673, 1.1000000e-02, 1.7000000e-02, 0.0
674, 1.1030671e-02, 1.7000000e-02, 0.0
675, 1.1500000e-02, 1.7000000e-02, 0.0
676, 1.2000000e-02, 1.7000000e-02, 0.0
677, 1.2500000e-02, 1.7000000e-02, 0.0
678, 1.3000000e-02, 1.7000000e-02, 0.0
679, 1.3500000e-02, 1.7000000e-02, 0.0
680, 1.4000000e-02, 1.7000000e-02, 0.0
681, 1.4500000e-02, 1.7000000e-02, 0.0
682, 1.4707561e-02, 1.7000000e-02, 0.0
683, 1.4855500e-02, 1.7000000e-02, 0.0
684, 1.5000000e-02, 1.7000000e-02, 0.0
685, 1.5297833e-02, 1.7000000e-02, 0.0
686, 1.5500000e-02, 1.7000000e-02, 0.0
687, 1.6000000e-02, 1.7000000e-02, 0.0
688, 1.6032328e-02, 1.7000000e-02, 0.0
689, 1.6500000e-02, 1.7000000e-02, 0.0
690, 8.0000000e-03, 1.7500000e-02, 0.0
691, 7.5000000e-03, 1.7500000e-02, 0.0
692, 8.5000000e-03, 1.7500000e-02, 0.0
693, 9.0000000e-03, 1.7500000e-02, 0.0
694, 9.5000000e-03, 1.7500000e-02, 0.0
695, 1.0000000e-02, 1.7500000e-02, 0.0
696, 1.0500000e-02, 1.7500000e-02, 0.0
697, 1.1000000e-02, 1.7500000e-02, 0.0
698, 1.1030671e-02, 1.7500000e-02, 0.0
699, 1.1500000e-02, 1.7500000e-02, 0.0
700, 1.2000000e-02, 1.7500000e-02, 0.0
701, 1.2500000e-02, 1.7500000e-02, 0.0
702, 1.3000000e-02, 1.7500000e-02, 0.0
703, 1.3500000e-02, 1.7500000e-02, 0.0
704, 1.4000000e-02, 1.7500000e-02, 0.0
705, 1.4500000e-02, 1.7500000e-02, 0.0
706, 1.4707561e-02, 1.7500000e-02, 0.0
707, 1.4855500e-02, 1.7500000e-02, 0.0
708, 1.5000000e-02, 1.7500000e-02, 0.0
709, 1.5297833e-02, 1.7500000e-02, 0.0
710, 1.5500000e-02, 1.7500000e-02, 0.0
711, 1.6000000e-02, 1.7500000e-02, 0.0
712, 1.6032328e-02, 1.7500000e-02, 0.0
713, 1.6500000e-02, 1.7500000e-02, 0.0
714, 8.0000000e-03, 1.8000000e-02, 0.0
715, 7.5000000e-03, 1.8000000e-02, 0.0
716, 8.5000000e-03, 1.8000000e-02, 0.0
717, 9.0000000e-03, 1.8000000e-02, 0.0
718, 9.5000000e-03, 1.8000000e-02, 0.0
719, 1.0000000e-02, 1.8000000e-02, 0.0
720, 1.0500000e-02, 1.8000000e-02, 0.0
721, 1.1000000e-02, 1.8000000e-02, 0.0
722, 1.1030671e-02, 1.8000000e-02, 0.0
723, 1.1500000e-02, 1.8000000e-02, 0.0
724, 1.2000000e-02, 1.8000000e-02, 0.0
725, 1.2500000e-02, 1.8000000e-02, 0.0
726, 1.3000000e-02, 1.8000000e-02, 0.0
727, 1.3500000e-02, 1.8000000e-02, 0.0
728, 1.4000000e-02, 1.8000000e-02, 0.0
729, 1.4500000e-02, 1.8000000e-02, 0.0
730, 1.4707561e-02, 1.8000000e-02, 0.0
731, 1.4855500e-02, 1.8000000e-02, 0.0
732, 1.5000000e-02, 1.8000000e-02, 0.0
733, 1.5297833e-02, 1.8000000e-02, 0.0
734, 1.5500000e-02, 1.8000000e-02, 0.0
735, 1.6000000e-02, 1.8000000e-02, 0.0
736, 1.6032328e-02, 1.8000000e-02, 0.0
737, 1.6500000e-02, 1.8000000e-02, 0.0
738, 1.7000000e-02, 1.7500000e-02, 0.0
739, 1.7000000e-02, 1.8000000e-02, 0.0
740, 8.0000000e-03, 1.8130052e-02, 0.0
741, 7.5000000e-03, 1.8130052e-02, 0.0
742, 8.5000000e-03, 1.8130052e-02, 0.0
743, 9.0000000e-03, 1.8130052e-02, 0.0
744, 9.5000000e-03, 1.8130052e-02, 0.0
745, 1.0000000e-02, 1.8130052e-02, 0.0
746, 1.0500000e-02, 1.8130052e-02, 0.0
747, 1.1000000e-02, 1.8130052e-02, 0.0
748, 1.1030671e-02, 1.8130052e-02, 0.0
749, 1.1500000e-02, 1.8130052e-02, 0.0
750, 1.2000000e-02, 1.8130052e-02, 0.0
751, 1.2500000e-02, 1.8130052e-02, 0.0
752, 1.3000000e-02, 1.8130052e-02, 0.0
753, 1.3500000e-02, 1.8130052e-02, 0.0
754, 1.4000000e-02, 1.8130052e-02, 0.0
755, 1.4500000e-02, 1.8130052e-02, 0.0
756, 1.4707561e-02, 1.8130052e-02, 0.0
757, 1.4855500e-02, 1.8130052e-02, 0.0
758, 1.5000000e-02, 1.8130052e-02, 0.0
759, 1.5297833e-02, 1.8130052e-02, 0.0
760, 1.5500000e-02, 1.8130052e-02, 0.0
761, 1.6000000e-02, 1.8130052e-02, 0.0
762, 1.6032328e-02, 1.8130052e-02, 0.0
763, 1.6500000e-02, 1.8130052e-02, 0.0
764, 1.7000000e-02, 1.8130052e-02, 0.0
765, 1.7056755e-02, 1.8000000e-02, 0.0
766, 1.7056755e-02, 1.8130052e-02, 0.0
767, 8.0000000e-03, 1.8500000e-02, 0.0
768, 7.5000000e-03, 1.8500000e-02, 0.0
769, 8.5000000e-03, 1.8500000e-02, 0.0
770, 9.0000000e-03, 1.8500000e-02, 0.0
771, 9.5000000e-03, 1.8500000e-02, 0.0
772, 1.0000000e-02, 1.8500000e-02, 0.0
773, 1.0500000e-02, 1.8500000e-02, 0.0
774, 1.1000000e-02, 1.8500000e-02, 0.0
775, 1.1030671e-02, 1.8500000e-02, 0.0
776, 1.1500000e-02, 1.8500000e-02, 0.0
777, 1.2000000e-02, 1.8500000e-02, 0.0
778, 1.2500000e-02, 1.8500000e-02, 0.0
779, 1.3000000e-02, 1.8500000e-02, 0.0
780, 1.3500000e-02, 1.8500000e-02, 0.0
781, 1.4000000e-02, 1.8500000e-02, 0.0
782, 1.4500000e-02, 1.8500000e-02, 0.0
783, 1.4707561e-02, 1.8500000e-02, 0.0
784, 1.4855500e-02, 1.8500000e-02, 0.0
785, 1.5000000e-02, 1.8500000e-02, 0.0
786, 1.5297833e-02, 1.8500000e-02, 0.0
787, 1.5500000e-02, 1.8500000e-02, 0.0
788, 1.6000000e-02, 1.8500000e-02, 0.0
789, 1.6032328e-02, 1.8500000e-02, 0.0
790, 1.6500000e-02, 1.8500000e-02, 0.0
791, 1.7000000e-02, 1.8500000e-02, 0.0
792, 1.7056755e-02, 1.8500000e-02, 0.0
793, 8.0000000e-03, 1.9000000e-02, 0.0
794, 7.5000000e-03, 1.9000000e-02, 0.0
795, 8.5000000e-03, 1.9000000e-02, 0.0
796, 9.0000000e-03, 1.9000000e-02, 0.0
797, 9.5000000e-03, 1.9000000e-02, 0.0
798, 1.0000000e-02, 1.9000000e-02, 0.0
799, 1.0500000e-02, 1.9000000e-02, 0.0
800, 1.1000000e-02, 1.9000000e-02, 0.0
801, 1.1030671e-02, 1.9000000e-02, 0.0
802, 1.1500000e-02, 1.9000000e-02, 0.0
803, 1.2000000e-02, 1.9000000e-02, 0.0
804, 1.2500000e-02, 1.9000000e-02, 0.0
805, 1.3000000e-02, 1.9000000e-02, 0.0
806, 1.3500000e-02, 1.9000000e-02, 0.0
807, 1.4000000e-02, 1.9000000e-02, 0.0
808, 1.4500000e-02, 1.9000000e-02, 0.0
809, 1.4707561e-02, 1.9000000e-02, 0.0
810, 1.4855500e-02, 1.9000000e-02, 0.0
811, 1.5000000e-02, 1.9000000e-02, 0.0
812, 1.5297833e-02, 1.9000000e-02, 0.0
813, 1.5500000e-02, 1.9000000e-02, 0.0
814, 1.6000000e-02, 1.9000000e-02, 0.0
815, 1.6032328e-02, 1.9000000e-02, 0.0
816, 1.6500000e-02, 1.9000000e-02, 0.0
817, 1.7000000e-02, 1.9000000e-02, 0.0
818, 1.7056755e-02, 1.9000000e-02, 0.0
819, 1.7500000e-02, 1.8500000e-02, 0.0
820, 1.7500000e-02, 1.9000000e-02, 0.0
821, 8.0000000e-03, 1.9500000e-02, 0.0
822, 7.5000000e-03, 1.9500000e-02, 0.0
823, 8.5000000e-03, 1.9500000e-02, 0.0
824, 9.0000000e-03, 1.9500000e-02, 0.0
825, 9.5000000e-03, 1.9500000e-02, 0.0
826, 1.0000000e-02, 1.9500000e-02, 0.0
827, 1.0500000e-02, 1.9500000e-02, 0.0
828, 1.1000000e-02, 1.9500000e-02, 0.0
829, 1.1030671e-02, 1.9500000e-02, 0.0
830, 1.1500000e-02, 1.9500000e-02, 0.0
831, 1.2000000e-02, 1.9500000e-02, 0.0
832, 1.2500000e-02, 1.9500000e-02, 0.0
833, 1.3000000e-02, 1.9500000e-02, 0.0
834, 1.3500000e-02, 1.9500000e-02, 0.0
835, 1.4000000e-02, 1.9500000e-02, 0.0
836, 1.4500000e-02, 1.9500000e-02, 0.0
837, 1.4707561e-02, 1.9500000e-02, 0.0
838, 1.4855500e-02, 1.9500000e-02, 0.0
839, 1.5000000e-02, 1.9500000e-02, 0.0
840, 1.5297833e-02, 1.9500000e-02, 0.0
841, 1.5500000e-02, 1.9500000e-02, 0.0
842, 1.6000000e-02, 1.9500000e-02, 0.0
843, 1.6032328e-02, 1.9500000e-02, 0.0
844, 1.6500000e-02, 1.9500000e-02, 0.0
845, 1.7000000e-02, 1.9500000e-02, 0.0
846, 1.7056755e-02, 1.9500000e-02, 0.0
847, 1.7500000e-02, 1.9500000e-02, 0.0
848, 8.0000000e-03, 2.0000000e-02, 0.0
849, 7.5000000e-03, 2.0000000e-02, 0.0
850, 8.5000000e-03, 2.0000000e-02, 0.0
851, 9.0000000e-03, 2.0000000e-02, 0.0
852, 9.5000000e-03, 2.0000000e-02, 0.0
853, 1.0000000e-02, 2.0000000e-02, 0.0
854, 1.0500000e-02, 2.0000000e-02, 0.0
855, 1.1000000e-02, 2.0000000e-02, 0.0
856, 1.1030671e-02, 2.0000000e-02, 0.0
857, 1.1500000e-02, 2.0000000e-02, 0.0
858, 1.2000000e-02, 2.0000000e-02, 0.0
859, 1.2500000e-02, 2.0000000e-02, 0.0
860, 1.3000000e-02, 2.0000000e-02, 0.0
861, 1.3500000e-02, 2.0000000e-02, 0.0
862, 1.4000000e-02, 2.0000000e-02, 0.0
863, 1.4500000e-02, 2.0000000e-02, 0.0
864, 1.4707561e-02, 2.0000000e-02, 0.0
865, 1.4855500e-02, 2.0000000e-02, 0.0
866, 1.5000000e-02, 2.0000000e-02, 0.0
867, 1.5297833e-02, 2.0000000e-02, 0.0
868, 1.5500000e-02, 2.0000000e-02, 0.0
869, 1.6000000e-02, 2.0000000e-02, 0.0
870, 1.6032328e-02, 2.0000000e-02, 0.0
871, 1.6500000e-02, 2.0000000e-02, 0.0
872, 1.7000000e-02, 2.0000000e-02, 0.0
873, 1.7056755e-02, 2.0000000e-02, 0.0
874, 1.7500000e-02, 2.0000000e-02, 0.0
875, 1.8000000e-02, 1.9500000e-02, 0.0
876, 1.8000000e-02, 2.0000000e-02, 0.0
877, 8.0000000e-03, 2.0500000e-02, 0.0
878, 7.5000000e-03, 2.0500000e-02, 0.0
879, 8.5000000e-03, 2.0500000e-02, 0.0
880, 9.0000000e-03, 2.0500000e-02, 0.0
881, 9.5000000e-03, 2.0500000e-02, 0.0
882, 1.0000000e-02, 2.0500000e-02, 0.0
883, 1.0500000e-02, 2.0500000e-02, 0.0
884, 1.1000000e-02, 2.0500000e-02, 0.0
885, 1.1030671e-02, 2.0500000e-02, 0.0
886, 1.1500000e-02, 2.0500000e-02, 0.0
887, 1.2000000e-02, 2.0500000e-02, 0.0
888, 1.2500000e-02, 2.0500000e-02, 0.0
889, 1.3000000e-02, 2.0500000e-02, 0.0
890, 1.3500000e-02, 2.0500000e-02, 0.0
891, 1.4000000e-02, 2.0500000e-02, 0.0
892, 1.4500000e-02, 2.0500000e-02, 0.0
893, 1.4707561e-02, 2.0500000e-02, 0.0
894, 1.4855500e-02, 2.0500000e-02, 0.0
895, 1.5000000e-02, 2.0500000e-02, 0.0
896, 1.5297833e-02, 2.0500000e-02, 0.0
897, 1.5500000e-02, 2.0500000e-02, 0.0
898, 1.6000000e-02, 2.0500000e-02, 0.0
899, 1.6032328e-02, 2.0500000e-02, 0.0
900, 1.6500000e-02, 2.0500000e-02, 0.0
901, 1.7000000e-02, 2.0500000e-02, 0.0
902, 1.7056755e-02, 2.0500000e-02, 0.0
903, 1.7500000e-02, 2.0500000e-02, 0.0
904, 1.8000000e-02, 2.0500000e-02, 0.0
905, 8.0000000e-03, 2.0855230e-02, 0.0
906, 7.5000000e-03, 2.0855230e-02, 0.0
907, 8.5000000e-03, 2.0855230e-02, 0.0
908, 9.0000000e-03, 2.0855230e-02, 0.0
909, 9.5000000e-03, 2.0855230e-02, 0.0
910, 1.0000000e-02, 2.0855230e-02, 0.0
911, 1.0500000e-02, 2.0855230e-02, 0.0
912, 1.1000000e-02, 2.0855230e-02, 0.0
913, 1.1030671e-02, 2.0855230e-02, 0.0
914, 1.1500000e-02, 2.0855230e-02, 0.0
915, 1.2000000e-02, 2.0855230e-02, 0.0
916, 1.2500000e-02, 2.0855230e-02, 0.0
917, 1.3000000e-02, 2.0855230e-02, 0.0
918, 1.3500000e-02, 2.0855230e-02, 0.0
919, 1.4000000e-02, 2.0855230e-02, 0.0
920, 1.4500000e-02, 2.0855230e-02, 0.0
921, 1.4707561e-02, 2.0855230e-02, 0.0
922, 1.4855500e-02, 2.0855230e-02, 0.0
923, 1.5000000e-02, 2.0855230e-02, 0.0
924, 1.5297833e-02, 2.0855230e-02, 0.0
925, 1.5500000e-02, 2.0855230e-02, 0.0
926, 1.6000000e-02, 2.0855230e-02, 0.0
927, 1.6032328e-02, 2.0855230e-02, 0.0
928, 1.6500000e-02, 2.0855230e-02, 0.0
929, 1.7000000e-02, 2.0855230e-02, 0.0
930, 1.7056755e-02, 2.0855230e-02, 0.0
931, 1.7500000e-02, 2.0855230e-02, 0.0
932, 1.8000000e-02, 2.0855230e-02, 0.0
933, 1.8368883e-02, 2.0500000e-02, 0.0
934, 1.8368883e-02, 2.0855230e-02, 0.0
935, 8.0000000e-03, 2.1000000e-02, 0.0
936, 7.5000000e-03, 2.1000000e-02, 0.0
937, 8.5000000e-03, 2.1000000e-02, 0.0
938, 9.0000000e-03, 2.1000000e-02, 0.0
939, 9.5000000e-03, 2.1000000e-02, 0.0
940, 1.0000000e-02, 2.1000000e-02, 0.0
941, 1.0500000e-02, 2.1000000e-02, 0.0
942, 1.1000000e-02, 2.1000000e-02, 0.0
943, 1.1030671e-02, 2.1000000e-02, 0.0
944, 1.1500000e-02, 2.1000000e-02, 0.0
945, 1.2000000e-02, 2.1000000e-02, 0.0
946, 1.2500000e-02, 2.1000000e-02, 0.0
947, 1.3000000e-02, 2.1000000e-02, 0.0
948, 1.3500000e-02, 2.1000000e-02, 0.0
949, 1.4000000e-02, 2.1000000e-02, 0.0
950, 1.4500000e-02, 2.1000000e-02, 0.0
951, 1.4707561e-02, 2.1000000e-02, 0.0
952, 1.4855500e-02, 2.1000000e-02, 0.0
953, 1.5000000e-02, 2.1000000e-02, 0.0
954, 1.5297833e-02, 2.1000000e-02, 0.0
955, 1.5500000e-02, 2.1000000e-02, 0.0
956, 1.6000000e-02, 2.1000000e-02, 0.0
957, 1.6032328e-02, 2.1000000e-02, 0.0
958, 1.6500000e-02, 2.1000000e-02, 0.0
959, 1.7000000e-02, 2.1000000e-02, 0.0
960, 1.7056755e-02, 2.1000000e-02, 0.0
961, 1.7500000e-02, 2.1000000e-02, 0.0
962, 1.8000000e-02, 2.1000000e-02, 0.0
963, 1.8368883e-02, 2.1000000e-02, 0.0
964, 8.0000000e-03, 2.1500000e-02, 0.0
965, 7.5000000e-03, 2.1500000e-02, 0.0
966, 8.5000000e-03, 2.1500000e-02, 0.0
967, 9.0000000e-03, 2.1500000e-02, 0.0
968, 9.5000000e-03, 2.1500000e-02, 0.0
969, 1.0000000e-02, 2.1500000e-02, 0.0
970, 1.0500000e-02, 2.1500000e-02, 0.0
971, 1.1000000e-02, 2.1500000e-02, 0.0
972, 1.1030671e-02, 2.1500000e-02, 0.0
973, 1.1500000e-02, 2.1500000e-02, 0.0
974, 1.2000000e-02, 2.1500000e-02, 0.0
975, 1.2500000e-02, 2.1500000e-02, 0.0
976, 1.3000000e-02, 2.1500000e-02, 0.0
977, 1.3500000e-02, 2.1500000e-02, 0.0
978, 1.4000000e-02, 2.1500000e-02, 0.0
979, 1.4500000e-02, 2.1500000e-02, 0.0
980, 1.4707561e-02, 2.1500000e-02, 0.0
981, 1.4855500e-02, 2.1500000e-02, 0.0
982, 1.5000000e-02, 2.1500000e-02, 0.0
983, 1.5297833e-02, 2.1500000e-02, 0.0
984, 1.5500000e-02, 2.1500000e-02, 0.0
985, 1.6000000e-02, 2.1500000e-02, 0.0
986, 1.6032328e-02, 2.1500000e-02, 0.0
987, 1.6500000e-02, 2.1500000e-02, 0.0
988, 1.7000000e-02, 2.1500000e-02, 0.0
989, 1.7056755e-02, 2.1500000e-02, 0.0
990, 1.7500000e-02, 2.1500000e-02, 0.0
991, 1.8000000e-02, 2.1500000e-02, 0.0
992, 1.8368883e-02, 2.1500000e-02, 0.0
993, 1.8500000e-02, 2.1000000e-02, 0.0
994, 1.8500000e-02, 2.1500000e-02, 0.0
995, 8.0000000e-03, 2.2000000e-02, 0.0
996, 7.5000000e-03, 2.2000000e-02, 0.0
997, 8.5000000e-03, 2.2000000e-02, 0.0
998, 9.0000000e-03, 2.2000000e-02, 0.0
999, 9.5000000e-03, 2.2000000e-02, 0.0
1000, 1.0000000e-02, 2.2000000e-02, 0.0
1001, 1.0500000e-02, 2.2000000e-02, 0.0
1002, 1.1000000e-02, 2.2000000e-02, 0.0
1003, 1.1030671e-02, 2.2000000e-02, 0.0
1004, 1.1500000e-02, 2.2000000e-02, 0.0
1005, 1.2000000e-02, 2.2000000e-02, 0.0
1006, 1.2500000e-02, 2.2000000e-02, 0.0
1007, 1.3000000e-02, 2.2000000e-02, 0.0
1008, 1.3500000e-02, 2.2000000e-02, 0.0
1009, 1.4000000e-02, 2.2000000e-02, 0.0
1010, 1.4500000e-02, 2.2000000e-02, 0.0
1011, 1.4707561e-02, 2.2000000e-02, 0.0
1012, 1.4855500e-02, 2.2000000e-02, 0.0
1013, 1.5000000e-02, 2.2000000e-02, 0.0
1014, 1.5297833e-02, 2.2000000e-02, 0.0
1015, 1.5500000e-02, 2.2000000e-02, 0.0
1016, 1.6000000e-02, 2.2000000e-02, 0.0
1017, 1.6032328e-02, 2.2000000e-02, 0.0
1018, 1.6500000e-02, 2.2000000e-02, 0.0
1019, 1.7000000e-02, 2.2000000e-02, 0.0
1020, 1.7056755e-02, 2.2000000e-02, 0.0
1021, 1.7500000e-02, 2.2000000e-02, 0.0
1022, 1.8000000e-02, 2.2000000e-02, 0.0
1023, 1.8368883e-02, 2.2000000e-02, 0.0
1024, 1.8500000e-02, 2.2000000e-02, 0.0
1025, 1.9000000e-02, 2.1500000e-02, 0.0
1026, 1.9000000e-02, 2.2000000e-02, 0.0
1027, 8.0000000e-03, 2.2500000e-02, 0.0
1028, 7.5000000e-03, 2.2500000e-02, 0.0
1029, 8.5000000e-03, 2.2500000e-02, 0.0
1030, 9.0000000e-03, 2.2500000e-02, 0.0
1031, 9.5000000e-03, 2.2500000e-02, 0.0
1032, 1.0000000e-02, 2.2500000e-02, 0.0
1033, 1.0500000e-02, 2.2500000e-02, 0.0
1034, 1.1000000e-02, 2.2500000e-02, 0.0
1035, 1.1030671e-02, 2.2500000e-02, 0.0
1036, 1.1500000e-02, 2.2500000e-02, 0.0
1037, 1.2000000e-02, 2.2500000e-02, 0.0
1038, 1.2500000e-02, 2.2500000e-02, 0.0
1039, 1.3000000e-02, 2.2500000e-02, 0.0
1040, 1.3500000e-02, 2.2500000e-02, 0.0
1041, 1.4000000e-02, 2.2500000e-02, 0.0
1042, 1.4500000e-02, 2.2500000e-02, 0.0
1043, 1.4707561e-02, 2.2500000e-02, 0.0
1044, 1.4855500e-02, 2.2500000e-02, 0.0
1045, 1.5000000e-02, 2.2500000e-02, 0.0
1046, 1.5297833e-02, 2.2500000e-02, 0.0
1047, 1.5500000e-02, 2.2500000e-02, 0.0
1048, 1.6000000e-02, 2.2500000e-02, 0.0
1049, 1.6032328e-02, 2.2500000e-02, 0.0
1050, 1.6500000e-02, 2.2500000e-02, 0.0
1051, 1.7000000e-02, 2.2500000e-02, 0.0
1052, 1.7056755e-02, 2.2500000e-02, 0.0
1053, 1.7500000e-02, 2.2500000e-02, 0.0
1054, 1.8000000e-02, 2.2500000e-02, 0.0
1055, 1.8368883e-02, 2.2500000e-02, 0.0
1056, 1.8500000e-02, 2.2500000e-02, 0.0
1057, 1.9000000e-02, 2.2500000e-02, 0.0
1058, 8.0000000e-03, 2.3000000e-02, 0.0
1059, 7.5000000e-03, 2.3000000e-02, 0.0
1060, 8.5000000e-03, 2.3000000e-02, 0.0
1061, 9.0000000e-03, 2.3000000e-02, 0.0
1062, 9.5000000e-03, 2.3000000e-02, 0.0
1063, 1.0000000e-02, 2.3000000e-02, 0.0
1064, 1.0500000e-02, 2.3000000e-02, 0.0
1065, 1.1000000e-02, 2.3000000e-02, 0.0
1066, 1.1030671e-02, 2.3000000e-02, 0.0
1067, 1.1500000e-02, 2.3000000e-02, 0.0
1068, 1.2000000e-02, 2.3000000e-02, 0.0
1069, 1.2500000e-02, 2.3000000e-02, 0.0
1070, 1.3000000e-02, 2.3000000e-02, 0.0
1071, 1.3500000e-02, 2.3000000e-02, 0.0
1072, 1.4000000e-02, 2.3000000e-02, 0.0
1073, 1.4500000e-02, 2.3000000e-02, 0.0
1074, 1.4707561e-02, 2.3000000e-02, 0.0
1075, 1.4855500e-02, 2.3000000e-02, 0.0
1076, 1.5000000e-02, 2.3000000e-02, 0.0
1077, 1.5297833e-02, 2.3000000e-02, 0.0
1078, 1.5500000e-02, 2.3000000e-02, 0.0
1079, 1.6000000e-02, 2.3000000e-02, 0.0
1080, 1.6032328e-02, 2.3000000e-02, 0.0
1081, 1.6500000e-02, 2.3000000e-02, 0.0
1082, 1.7000000e-02, 2.3000000e-02, 0.0
1083, 1.7056755e-02, 2.3000000e-02, 0.0
1084, 1.7500000e-02, 2.3000000e-02, 0.0
1085, 1.8000000e-02, 2.3000000e-02, 0.0
1086, 1.8368883e-02, 2.3000000e-02, 0.0
1087, 1.8500000e-02, 2.3000000e-02, 0.0
1088, 1.9000000e-02, 2.3000000e-02, 0.0
1089, 1.9500000e-02, 2.2500000e-02, 0.0
1090, 1.9500000e-02, 2.3000000e-02, 0.0
1091, 8.0000000e-03, 2.3466295e-02, 0.0
1092, 7.5000000e-03, 2.3466295e-02, 0.0
1093, 8.5000000e-03, 2.3466295e-02, 0.0
1094, 9.0000000e-03, 2.3466295e-02, 0.0
1095, 9.5000000e-03, 2.3466295e-02, 0.0
1096, 1.0000000e-02, 2.3466295e-02, 0.0
1097, 1.0500000e-02, 2.3466295e-02, 0.0
1098, 1.1000000e-02, 2.3466295e-02, 0.0
1099, 1.1030671e-02, 2.3466295e-02, 0.0
1100, 1.1500000e-02, 2.3466295e-02, 0.0
1101, 1.2000000e-02, 2.3466295e-02, 0.0
1102, 1.2500000e-02, 2.3466295e-02, 0.0
1103, 1.3000000e-02, 2.3466295e-02, 0.0
1104, 1.3500000e-02, 2.3466295e-02, 0.0
1105, 1.4000000e-02, 2.3466295e-02, 0.0
1106, 1.4500000e-02, 2.3466295e-02, 0.0
1107, 1.4707561e-02, 2.3466295e-02, 0.0
1108, 1.4855500e-02, 2.3466295e-02, 0.0
1109, 1.5000000e-02, 2.3466295e-02, 0.0
1110, 1.5297833e-02, 2.3466295e-02, 0.0
1111, 1.5500000e-02, 2.3466295e-02, 0.0
1112, 1.6000000e-02, 2.3466295e-02, 0.0
1113, 1.6032328e-02, 2.3466295e-02, 0.0
1114, 1.6500000e-02, 2.3466295e-02, 0.0
1115, 1.7000000e-02, 2.3466295e-02, 0.0
1116, 1.7056755e-02, 2.3466295e-02, 0.0
1117, 1.7500000e-02, 2.3466295e-02, 0.0
1118, 1.8000000e-02, 2.3466295e-02, 0.0
1119, 1.8368883e-02, 2.3466295e-02, 0.0
1120, 1.8500000e-02, 2.3466295e-02, 0.0
1121, 1.9000000e-02, 2.3466295e-02, 0.0
1122, 1.9500000e-02, 2.3466295e-02, 0.0
1123, 1.9966484e-02, 2.3000000e-02, 0.0
1124, 1.9966484e-02, 2.3466295e-02, 0.0
1125, 8.0000000e-03, 2.3500000e-02, 0.0
1126, 7.5000000e-03, 2.3500000e-02, 0.0
1127, 8.5000000e-03, 2.3500000e-02, 0.0
1128, 9.0000000e-03, 2.3500000e-02, 0.0
1129, 9.5000000e-03, 2.3500000e-02, 0.0
1130, 1.0000000e-02, 2.3500000e-02, 0.0
1131, 1.0500000e-02, 2.3500000e-02, 0.0
1132, 1.1000000e-02, 2.3500000e-02, 0.0
1133, 1.1030671e-02, 2.3500000e-02, 0.0
1134, 1.1500000e-02, 2.3500000e-02, 0.0
1135, 1.2000000e-02, 2.3500000e-02, 0.0
1136, 1.2500000e-02, 2.3500000e-02, 0.0
1137, 1.3000000e-02, 2.3500000e-02, 0.0
1138, 1.3500000e-02, 2.3500000e-02, 0.0
1139, 1.4000000e-02, 2.3500000e-02, 0.0
1140, 1.4500000e-02, 2.3500000e-02, 0.0
1141, 1.4707561e-02, 2.3500000e-02, 0.0
1142, 1.4855500e-02, 2.3500000e-02, 0.0
1143, 1.5000000e-02, 2.3500000e-02, 0.0
1144, 1.5297833e-02, 2.3500000e-02, 0.0
1145, 1.5500000e-02, 2.3500000e-02, 0.0
1146, 1.6000000e-02, 2.3500000e-02, 0.0
1147, 1.6032328e-02, 2.3500000e-02, 0.0
1148, 1.6500000e-02, 2.3500000e-02, 0.0
1149, 1.7000000e-02, 2.3500000e-02, 0.0
1150, 1.7056755e-02, 2.3500000e-02, 0.0
1151, 1.7500000e-02, 2.3500000e-02, 0.0
1152, 1.8000000e-02, 2.3500000e-02, 0.0
1153, 1.8368883e-02, 2.3500000e-02, 0.0
1154, 1.8500000e-02, 2.3500000e-02, 0.0
1155, 1.9000000e-02, 2.3500000e-02, 0.0
1156, 1.9500000e-02, 2.3500000e-02, 0.0
1157, 1.9966484e-02, 2.3500000e-02, 0.0
1158, 8.0000000e-03, 2.4000000e-02, 0.0
1159, 7.5000000e-03, 2.4000000e-02, 0.0
1160, 8.5000000e-03, 2.4000000e-02, 0.0
1161, 9.0000000e-03, 2.4000000e-02, 0.0
1162, 9.5000000e-03, 2.4000000e-02, 0.0
1163, 1.0000000e-02, 2.4000000e-02, 0.0
1164, 1.0500000e-02, 2.4000000e-02, 0.0
1165, 1.1000000e-02, 2.4000000e-02, 0.0
1166, 1.1030671e-02, 2.4000000e-02, 0.0
1167, 1.1500000e-02, 2.4000000e-02, 0.0
1168, 1.2000000e-02, 2.4000000e-02, 0.0
1169, 1.2500000e-02, 2.4000000e-02, 0.0
1170, 1.3000000e-02, 2.4000000e-02, 0.0
1171, 1.3500000e-02, 2.4000000e-02, 0.0
1172, 1.4000000e-02, 2.4000000e-02, 0.0
1173, 1.4500000e-02, 2.4000000e-02, 0.0
1174, 1.4707561e-02, 2.4000000e-02, 0.0
1175, 1.4855500e-02, 2.4000000e-02, 0.0
1176, 1.5000000e-02, 2.4000000e-02, 0.0
1177, 1.5297833e-02, 2.4000000e-02, 0.0
1178, 1.5500000e-02, 2.4000000e-02, 0.0
1179, 1.6000000e-02, 2.4000000e-02, 0.0
1180, 1.6032328e-02, 2.4000000e-02, 0.0
1181, 1.6500000e-02, 2.4000000e-02, 0.0
1182, 1.7000000e-02, 2.4000000e-02, 0.0
1183, 1.7056755e-02, 2.4000000e-02, 0.0
1184, 1.7500000e-02, 2.4000000e-02, 0.0
1185, 1.8000000e-02, 2.4000000e-02, 0.0
1186, 1.8368883e-02, 2.4000000e-02, 0.0
1187, 1.8500000e-02, 2.4000000e-02, 0.0
1188, 1.9000000e-02, 2.4000000e-02, 0.0
1189, 1.9500000e-02, 2.4000000e-02, 0.0
1190, 1.9966484e-02, 2.4000000e-02, 0.0
1191, 2.0000000e-02, 2.3500000e-02, 0.0
1192, 2.0000000e-02, 2.4000000e-02, 0.0
1193, 8.0000000e-03, 2.4500000e-02, 0.0
1194, 7.5000000e-03, 2.4500000e-02, 0.0
1195, 8.5000000e-03, 2.4500000e-02, 0.0
1196, 9.0000000e-03, 2.4500000e-02, 0.0
1197, 9.5000000e-03, 2.4500000e-02, 0.0
1198, 1.0000000e-02, 2.4500000e-02, 0.0
1199, 1.0500000e-02, 2.4500000e-02, 0.0
1200, 1.1000000e-02, 2.4500000e-02, 0.0
1201, 1.1030671e-02, 2.4500000e-02, 0.0
1202, 1.1500000e-02, 2.4500000e-02, 0.0
1203, 1.2000000e-02, 2.4500000e-02, 0.0
1204, 1.2500000e-02, 2.4500000e-02, 0.0
1205, 1.3000000e-02, 2.4500000e-02, 0.0
1206, 1.3500000e-02, 2.4500000e-02, 0.0
1207, 1.4000000e-02, 2.4500000e-02, 0.0
1208, 1.4500000e-02, 2.4500000e-02, 0.0
1209, 1.4707561e-02, 2.4500000e-02, 0.0
1210, 1.4855500e-02, 2.4500000e-02, 0.0
1211, 1.5000000e-02, 2.4500000e-02, 0.0
1212, 1.5297833e-02, 2.4500000e-02, 0.0
1213, 1.5500000e-02, 2.4500000e-02, 0.0
1214, 1.6000000e-02, 2.4500000e-02, 0.0
1215, 1.6032328e-02, 2.4500000e-02, 0.0
1216, 1.6500000e-02, 2.4500000e-02, 0.0
1217, 1.7000000e-02, 2.4500000e-02, 0.0
1218, 1.7056755e-02, 2.4500000e-02, 0.0
1219, 1.7500000e-02, 2.4500000e-02, 0.0
1220, 1.8000000e-02, 2.4500000e-02, 0.0
1221, 1.8368883e-02, 2.4500000e-02, 0.0
1222, 1.8500000e-02, 2.4500000e-02, 0.0
1223, 1.9000000e-02, 2.4500000e-02, 0.0
1224, 1.9500000e-02, 2.4500000e-02, 0.0
1225, 1.9966484e-02, 2.4500000e-02, 0.0
1226, 2.0000000e-02, 2.4500000e-02, 0.0
1227, 2.0500000e-02, 2.4000000e-02, 0.0
1228, 2.0500000e-02, 2.4500000e-02, 0.0
1229, 8.0000000e-03, 2.5000000e-02, 0.0
1230, 7.5000000e-03, 2.5000000e-02, 0.0
1231, 8.5000000e-03, 2.5000000e-02, 0.0
1232, 9.0000000e-03, 2.5000000e-02, 0.0
1233, 9.5000000e-03, 2.5000000e-02, 0.0
1234, 1.0000000e-02, 2.5000000e-02, 0.0
1235, 1.0500000e-02, 2.5000000e-02, 0.0
1236, 1.1000000e-02, 2.5000000e-02, 0.0
1237, 1.1030671e-02, 2.5000000e-02, 0.0
1238, 1.1500000e-02, 2.5000000e-02, 0.0
1239, 1.2000000e-02, 2.5000000e-02, 0.0
1240, 1.2500000e-02, 2.5000000e-02, 0.0
1241, 1.3000000e-02, 2.5000000e-02, 0.0
1242, 1.3500000e-02, 2.5000000e-02, 0.0
1243, 1.4000000e-02, 2.5000000e-02, 0.0
1244, 1.4500000e-02, 2.5000000e-02, 0.0
1245, 1.4707561e-02, 2.5000000e-02, 0.0
1246, 1.4855500e-02, 2.5000000e-02, 0.0
1247, 1.5000000e-02, 2.5000000e-02, 0.0
1248, 1.5297833e-02, 2.5000000e-02, 0.0
1249, 1.5500000e-02, 2.5000000e-02, 0.0
1250, 1.6000000e-02, 2.5000000e-02, 0.0
1251, 1.6032328e-02, 2.5000000e-02, 0.0
1252, 1.6500000e-02, 2.5000000e-02, 0.0
1253, 1.7000000e-02, 2.5000000e-02, 0.0
1254, 1.7056755e-02, 2.5000000e-02, 0.0
1255, 1.7500000e-02, 2.5000000e-02, 0.0
1256, 1.8000000e-02, 2.5000000e-02, 0.0
1257, 1.8368883e-02, 2.5000000e-02, 0.0
1258, 1.8500000e-02, 2.5000000e-02, 0.0
1259, 1.9000000e-02, 2.5000000e-02, 0.0
1260, 1.9500000e-02, 2.5000000e-02, 0.0
1261, 1.9966484e-02, 2.5000000e-02, 0.0
1262, 2.0000000e-02, 2.5000000e-02, 0.0
1263, 2.0500000e-02, 2.5000000e-02, 0.0
1264, 2.1000000e-02, 2.4500000e-02, 0.0
1265, 2.1000000e-02, 2.5000000e-02, 0.0
1266, 8.0000000e-03, 2.5500000e-02, 0.0
1267, 7.5000000e-03, 2.5500000e-02, 0.0
1268, 8.5000000e-03, 2.5500000e-02, 0.0
1269, 9.0000000e-03, 2.5500000e-02, 0.0
1270, 9.5000000e-03, 2.5500000e-02, 0.0
1271, 1.0000000e-02, 2.5500000e-02, 0.0
1272, 1.0500000e-02, 2.5500000e-02, 0.0
1273, 1.1000000e-02, 2.5500000e-02, 0.0
1274, 1.1030671e-02, 2.5500000e-02, 0.0
1275, 1.1500000e-02, 2.5500000e-02, 0.0
1276, 1.2000000e-02, 2.5500000e-02, 0.0
1277, 1.2500000e-02, 2.5500000e-02, 0.0
1278, 1.3000000e-02, 2.5500000e-02, 0.0
1279, 1.3500000e-02, 2.5500000e-02, 0.0
1280, 1.4000000e-02, 2.5500000e-02, 0.0
1281, 1.4500000e-02, 2.5500000e-02, 0.0
1282, 1.4707561e-02, 2.5500000e-02, 0.0
1283, 1.4855500e-02, 2.5500000e-02, 0.0
1284, 1.5000000e-02, 2.5500000e-02, 0.0
1285, 1.5297833e-02, 2.5500000e-02, 0.0
1286, 1.5500000e-02, 2.5500000e-02, 0.0
1287, 1.6000000e-02, 2.5500000e-02, 0.0
1288, 1.6032328e-02, 2.5500000e-02, 0.0
1289, 1.6500000e-02, 2.5500000e-02, 0.0
1290, 1.7000000e-02, 2.5500000e-02, 0.0
1291, 1.7056755e-02, 2.5500000e-02, 0.0
1292, 1.7500000e-02, 2.5500000e-02, 0.0
1293, 1.8000000e-02, 2.5500000e-02, 0.0
1294, 1.8368883e-02, 2.5500000e-02, 0.0
1295, 1.8500000e-02, 2.5500000e-02, 0.0
1296, 1.9000000e-02, 2.5500000e-02, 0.0
1297, 1.9500000e-02, 2.5500000e-02, 0.0
1298, 1.9966484e-02, 2.5500000e-02, 0.0
1299, 2.0000000e-02, 2.5500000e-02, 0.0
1300, 2.0500000e-02, 2.5500000e-02, 0.0
1301, 2.1000000e-02, 2.5500000e-02, 0.0
1302, 2.1500000e-02, 2.5000000e-02, 0.0
1303, 2.1500000e-02, 2.5500000e-02, 0.0
1304, 8.0000000e-03, 2.5952303e-02, 0.0
1305, 7.5000000e-03, 2.5952303e-02, 0.0
1306, 8.5000000e-03, 2.5952303e-02, 0.0
1307, 9.0000000e-03, 2.5952303e-02, 0.0
1308, 9.5000000e-03, 2.5952303e-02, 0.0
1309, 1.0000000e-02, 2.5952303e-02, 0.0
1310, 1.0500000e-02, 2.5952303e-02, 0.0
1311, 1.1000000e-02, 2.5952303e-02, 0.0
1312, 1.1030671e-02, 2.5952303e-02, 0.0
1313, 1.1500000e-02, 2.5952303e-02, 0.0
1314, 1.2000000e-02, 2.5952303e-02, 0.0
1315, 1.2500000e-02, 2.5952303e-02, 0.0
1316, 1.3000000e-02, 2.5952303e-02, 0.0
1317, 1.3500000e-02, 2.5952303e-02, 0.0
1318, 1.4000000e-02, 2.5952303e-02, 0.0
1319, 1.4500000e-02, 2.5952303e-02, 0.0
1320, 1.4707561e-02, 2.5952303e-02, 0.0
1321, 1.4855500e-02, 2.5952303e-02, 0.0
1322, 1.5000000e-02, 2.5952303e-02, 0.0
1323, 1.5297833e-02, 2.5952303e-02, 0.0
1324, 1.5500000e-02, 2.5952303e-02, 0.0
1325, 1.6000000e-02, 2.5952303e-02, 0.0
1326, 1.6032328e-02, 2.5952303e-02, 0.0
1327, 1.6500000e-02, 2.5952303e-02, 0.0
1328, 1.7000000e-02, 2.5952303e-02, 0.0
1329, 1.7056755e-02, 2.5952303e-02, 0.0
1330, 1.7500000e-02, 2.5952303e-02, 0.0
1331, 1.8000000e-02, 2.5952303e-02, 0.0
1332, 1.8368883e-02, 2.5952303e-02, 0.0
1333, 1.8500000e-02, 2.5952303e-02, 0.0
1334, 1.9000000e-02, 2.5952303e-02, 0.0
1335, 1.9500000e-02, 2.5952303e-02, 0.0
1336, 1.9966484e-02, 2.5952303e-02, 0.0
1337, 2.0000000e-02, 2.5952303e-02, 0.0
1338, 2.0500000e-02, 2.5952303e-02, 0.0
1339, 2.1000000e-02, 2.5952303e-02, 0.0
1340, 2.1500000e-02, 2.5952303e-02, 0.0
1341, 2.1847326e-02, 2.5500000e-02, 0.0
1342, 2.1847326e-02, 2.5952303e-02, 0.0
1343, 8.0000000e-03, 2.6000000e-02, 0.0
1344, 7.5000000e-03, 2.6000000e-02, 0.0
1345, 8.5000000e-03, 2.6000000e-02, 0.0
1346, 9.0000000e-03, 2.6000000e-02, 0.0
1347, 9.5000000e-03, 2.6000000e-02, 0.0
1348, 1.0000000e-02, 2.6000000e-02, 0.0
1349, 1.0500000e-02, 2.6000000e-02, 0.0
1350, 1.1000000e-02, 2.6000000e-02, 0.0
1351, 1.1030671e-02, 2.6000000e-02, 0.0
1352, 1.1500000e-02, 2.6000000e-02, 0.0
1353, 1.2000000e-02, 2.6000000e-02, 0.0
1354, 1.2500000e-02, 2.6000000e-02, 0.0
1355, 1.3000000e-02, 2.6000000e-02, 0.0
1356, 1.3500000e-02, 2.6000000e-02, 0.0
1357, 1.4000000e-02, 2.6000000e-02, 0.0
1358, 1.4500000e-02, 2.6000000e-02, 0.0
1359, 1.4707561e-02, 2.6000000e-02, 0.0
1360, 1.4855500e-02, 2.6000000e-02, 0.0
1361, 1.5000000e-02, 2.6000000e-02, 0.0
1362, 1.5297833e-02, 2.6000000e-02, 0.0
1363, 1.5500000e-02, 2.6000000e-02, 0.0
1364, 1.6000000e-02, 2.6000000e-02, 0.0
1365, 1.6032328e-02, 2.6000000e-02, 0.0
1366, 1.6500000e-02, 2.6000000e-02, 0.0
1367, 1.7000000e-02, 2.6000000e-02, 0.0
1368, 1.7056755e-02, 2.6000000e-02, 0.0
1369, 1.7500000e-02, 2.6000000e-02, 0.0
1370, 1.8000000e-02, 2.6000000e-02, 0.0
1371, 1.8368883e-02, 2.6000000e-02, 0.0
1372, 1.8500000e-02, 2.6000000e-02, 0.0
1373, 1.9000000e-02, 2.6000000e-02, 0.0
1374, 1.9500000e-02, 2.6000000e-02, 0.0
1375, 1.9966484e-02, 2.6000000e-02, 0.0
1376, 2.0000000e-02, 2.6000000e-02, 0.0
1377, 2.0500000e-02, 2.6000000e-02, 0.0
1378, 2.1000000e-02, 2.6000000e-02, 0.0
1379, 2.1500000e-02, 2.6000000e-02, 0.0
1380, 2.1847326e-02, 2.6000000e-02, 0.0
1381, 8.0000000e-03, 2.6500000e-02, 0.0
1382, 7.5000000e-03, 2.6500000e-02, 0.0
1383, 8.5000000e-03, 2.6500000e-02, 0.0
1384, 9.0000000e-03, 2.6500000e-02, 0.0
1385, 9.5000000e-03, 2.6500000e-02, 0.0
1386, 1.0000000e-02, 2.6500000e-02, 0.0
1387, 1.0500000e-02, 2.6500000e-02, 0.0
1388, 1.1000000e-02, 2.6500000e-02, 0.0
1389, 1.1030671e-02, 2.6500000e-02, 0.0
1390, 1.1500000e-02, 2.6500000e-02, 0.0
1391, 1.2000000e-02, 2.6500000e-02, 0.0
1392, 1.2500000e-02, 2.6500000e-02, 0.0
1393, 1.3000000e-02, 2.6500000e-02, 0.0
1394, 1.3500000e-02, 2.6500000e-02, 0.0
1395, 1.4000000e-02, 2.6500000e-02, 0.0
1396, 1.4500000e-02, 2.6500000e-02, 0.0
1397, 1.4707561e-02, 2.6500000e-02, 0.0
1398, 1.4855500e-02, 2.6500000e-02, 0.0
1399, 1.5000000e-02, 2.6500000e-02, 0.0
1400, 1.5297833e-02, 2.6500000e-02, 0.0
1401, 1.5500000e-02, 2.6500000e-02, 0.0
1402, 1.6000000e-02, 2.6500000e-02, 0.0
1403, 1.6032328e-02, 2.6500000e-02, 0.0
1404, 1.6500000e-02, 2.6500000e-02, 0.0
1405, 1.7000000e-02, 2.6500000e-02, 0.0
1406, 1.7056755e-02, 2.6500000e-02, 0.0
1407, 1.7500000e-02, 2.6500000e-02, 0.0
1408, 1.8000000e-02, 2.6500000e-02, 0.0
1409, 1.8368883e-02, 2.6500000e-02, 0.0
1410, 1.8500000e-02, 2.6500000e-02, 0.0
1411, 1.9000000e-02, 2.6500000e-02, 0.0
1412, 1.9500000e-02, 2.6500000e-02, 0.0
1413, 1.9966484e-02, 2.6500000e-02, 0.0
1414, 2.0000000e-02, 2.6500000e-02, 0.0
1415, 2.0500000e-02, 2.6500000e-02, 0.0
1416, 2.1000000e-02, 2.6500000e-02, 0.0
1417, 2.1500000e-02, 2.6500000e-02, 0.0
1418, 2.1847326e-02, 2.6500000e-02, 0.0
1419, 2.2000000e-02, 2.6000000e-02, 0.0
1420, 2.2000000e-02, 2.6500000e-02, 0.0
1421, 8.0000000e-03, 2.7000000e-02, 0.0
1422, 7.5000000e-03, 2.7000000e-02, 0.0
1423, 8.5000000e-03, 2.7000000e-02, 0.0
1424, 9.0000000e-03, 2.7000000e-02, 0.0
1425, 9.5000000e-03, 2.7000000e-02, 0.0
1426, 1.0000000e-02, 2.7000000e-02, 0.0
1427, 1.0500000e-02, 2.7000000e-02, 0.0
1428, 1.1000000e-02, 2.7000000e-02, 0.0
1429, 1.1030671e-02, 2.7000000e-02, 0.0
1430, 1.1500000e-02, 2.7000000e-02, 0.0
1431, 1.2000000e-02, 2.7000000e-02, 0.0
1432, 1.2500000e-02, 2.7000000e-02, 0.0
1433, 1.3000000e-02, 2.7000000e-02, 0.0
1434, 1.3500000e-02, 2.7000000e-02, 0.0
1435, 1.4000000e-02, 2.7000000e-02, 0.0
1436, 1.4500000e-02, 2.7000000e-02, 0.0
1437, 1.4707561e-02, 2.7000000e-02, 0.0
1438, 1.4855500e-02, 2.7000000e-02, 0.0
1439, 1.5000000e-02, 2.7000000e-02, 0.0
1440, 1.5297833e-02, 2.7000000e-02, 0.0
1441, 1.5500000e-02, 2.7000000e-02, 0.0
1442, 1.6000000e-02, 2.7000000e-02, 0.0
1443, 1.6032328e-02, 2.7000000e-02, 0.0
1444, 1.6500000e-02, 2.7000000e-02, 0.0
1445, 1.7000000e-02, 2.7000000e-02, 0.0
1446, 1.7056755e-02, 2.7000000e-02, 0.0
1447, 1.7500000e-02, 2.7000000e-02, 0.0
1448, 1.8000000e-02, 2.7000000e-02, 0.0
1449, 1.8368883e-02, 2.7000000e-02, 0.0
1450, 1.8500000e-02, 2.7000000e-02, 0.0
1451, 1.9000000e-02, 2.7000000e-02, 0.0
1452, 1.9500000e-02, 2.7000000e-02, 0.0
1453, 1.9966484e-02, 2.7000000e-02, 0.0
1454, 2.0000000e-02, 2.7000000e-02, 0.0
1455, 2.0500000e-02, 2.7000000e-02, 0.0
1456, 2.1000000e-02, 2.7000000e-02, 0.0
1457, 2.1500000e-02, 2.7000000e-02, 0.0
1458, 2.1847326e-02, 2.7000000e-02, 0.0
1459, 2.2000000e-02, 2.7000000e-02, 0.0
1460, 2.2500000e-02, 2.6500000e-02, 0.0
1461, 2.2500000e-02, 2.7000000e-02, 0.0
1462, 8.0000000e-03, 2.7500000e-02, 0.0
1463, 7.5000000e-03, 2.7500000e-02, 0.0
1464, 8.5000000e-03, 2.7500000e-02, 0.0
1465, 9.0000000e-03, 2.7500000e-02, 0.0
1466, 9.5000000e-03, 2.7500000e-02, 0.0
1467, 1.0000000e-02, 2.7500000e-02, 0.0
1468, 1.0500000e-02, 2.7500000e-02, 0.0
1469, 1.1000000e-02, 2.7500000e-02, 0.0
1470, 1.1030671e-02, 2.7500000e-02, 0.0
1471, 1.1500000e-02, 2.7500000e-02, 0.0
1472, 1.2000000e-02, 2.7500000e-02, 0.0
1473, 1.2500000e-02, 2.7500000e-02, 0.0
1474, 1.3000000e-02, 2.7500000e-02, 0.0
1475, 1.3500000e-02, 2.7500000e-02, 0.0
1476, 1.4000000e-02, 2.7500000e-02, 0.0
1477, 1.4500000e-02, 2.7500000e-02, 0.0
1478, 1.4707561e-02, 2.7500000e-02, 0.0
1479, 1.4855500e-02, 2.7500000e-02, 0.0
1480, 1.5000000e-02, 2.7500000e-02, 0.0
1481, 1.5297833e-02, 2.7500000e-02, 0.0
1482, 1.5500000e-02, 2.7500000e-02, 0.0
1483, 1.6000000e-02, 2.7500000e-02, 0.0
1484, 1.6032328e-02, 2.7500000e-02, 0.0
1485, 1.6500000e-02, 2.7500000e-02, 0.0
1486, 1.7000000e-02, 2.7500000e-02, 0.0
1487, 1.7056755e-02, 2.7500000e-02, 0.0
1488, 1.7500000e-02, 2.7500000e-02, 0.0
1489, 1.8000000e-02, 2.7500000e-02, 0.0
1490, 1.8368883e-02, 2.7500000e-02, 0.0
1491, 1.8500000e-02, 2.7500000e-02, 0.0
1492, 1.9000000e-02, 2.7500000e-02, 0.0
1493, 1.9500000e-02, 2.7500000e-02, 0.0
1494, 1.9966484e-02, 2.7500000e-02, 0.0
1495, 2.0000000e-02, 2.7500000e-02, 0.0
1496, 2.0500000e-02, 2.7500000e-02, 0.0
1497, 2.1000000e-02, 2.7500000e-02, 0.0
1498, 2.1500000e-02, 2.7500000e-02, 0.0
1499, 2.1847326e-02, 2.7500000e-02, 0.0
1500, 2.2000000e-02, 2.7500000e-02, 0.0
1501, 2.2500000e-02, 2.7500000e-02, 0.0
1502, 2.2994457e-02, 2.7000000e-02, 0.0
1503, 2.2994457e-02, 2.7500000e-02, 0.0
1504, 8.0000000e-03, 2.8000000e-02, 0.0
1505, 7.5000000e-03, 2.8000000e-02, 0.0
1506, 8.5000000e-03, 2.8000000e-02, 0.0
1507, 9.0000000e-03, 2.8000000e-02, 0.0
1508, 9.5000000e-03, 2.8000000e-02, 0.0
1509, 1.0000000e-02, 2.8000000e-02, 0.0
1510, 1.0500000e-02, 2.8000000e-02, 0.0
1511, 1.1000000e-02, 2.8000000e-02, 0.0
1512, 1.1030671e-02, 2.8000000e-02, 0.0
1513, 1.1500000e-02, 2.8000000e-02, 0.0
1514, 1.2000000e-02, 2.8000000e-02, 0.0
1515, 1.2500000e-02, 2.8000000e-02, 0.0
1516, 1.3000000e-02, 2.8000000e-02, 0.0
1517, 1.3500000e-02, 2.8000000e-02, 0.0
1518, 1.4000000e-02, 2.8000000e-02, 0.0
1519, 1.4500000e-02, 2.8000000e-02, 0.0
1520, 1.4707561e-02, 2.8000000e-02, 0.0
1521, 1.4855500e-02, 2.8000000e-02, 0.0
1522, 1.5000000e-02, 2.8000000e-02, 0.0
1523, 1.5297833e-02, 2.8000000e-02, 0.0
1524, 1.5500000e-02, 2.8000000e-02, 0.0
1525, 1.6000000e-02, 2.8000000e-02, 0.0
1526, 1.6032328e-02, 2.8000000e-02, 0.0
1527, 1.6500000e-02, 2.8000000e-02, 0.0
1528, 1.7000000e-02, 2.8000000e-02, 0.0
1529, 1.7056755e-02, 2.8000000e-02, 0.0
1530, 1.7500000e-02, 2.8000000e-02, 0.0
1531, 1.8000000e-02, 2.8000000e-02, 0.0
1532, 1.8368883e-02, 2.8000000e-02, 0.0
1533, 1.8500000e-02, 2.8000000e-02, 0.0
1534, 1.9000000e-02, 2.8000000e-02, 0.0
1535, 1.9500000e-02, 2.8000000e-02, 0.0
1536, 1.9966484e-02, 2.8000000e-02, 0.0
1537, 2.0000000e-02, 2.8000000e-02, 0.0
1538, 2.0500000e-02, 2.8000000e-02, 0.0
1539, 2.1000000e-02, 2.8000000e-02, 0.0
1540, 2.1500000e-02, 2.8000000e-02, 0.0
1541, 2.1847326e-02, 2.8000000e-02, 0.0
1542, 2.2000000e-02, 2.8000000e-02, 0.0
1543, 2.2500000e-02, 2.8000000e-02, 0.0
1544, 2.2994457e-02, 2.8000000e-02, 0.0
1545, 2.3500000e-02, 2.7500000e-02, 0.0
1546, 2.3500000e-02, 2.8000000e-02, 0.0
1547, 8.0000000e-03, 2.8302313e-02, 0.0
1548, 7.5000000e-03, 2.8302313e-02, 0.0
1549, 8.5000000e-03, 2.8302313e-02, 0.0
1550, 9.0000000e-03, 2.8302313e-02, 0.0
1551, 9.5000000e-03, 2.8302313e-02, 0.0
1552, 1.0000000e-02, 2.8302313e-02, 0.0
1553, 1.0500000e-02, 2.8302313e-02, 0.0
1554, 1.1000000e-02, 2.8302313e-02, 0.0
1555, 1.1030671e-02, 2.8302313e-02, 0.0
1556, 1.1500000e-02, 2.8302313e-02, 0.0
1557, 1.2000000e-02, 2.8302313e-02, 0.0
1558, 1.2500000e-02, 2.8302313e-02, 0.0
1559, 1.3000000e-02, 2.8302313e-02, 0.0
1560, 1.3500000e-02, 2.8302313e-02, 0.0
1561, 1.4000000e-02, 2.8302313e-02, 0.0
1562, 1.4500000e-02, 2.8302313e-02, 0.0
1563, 1.4707561e-02, 2.8302313e-02, 0.0
1564, 1.4855500e-02, 2.8302313e-02, 0.0
1565, 1.5000000e-02, 2.8302313e-02, 0.0
1566, 1.5297833e-02, 2.8302313e-02, 0.0
1567, 1.5500000e-02, 2.8302313e-02, 0.0
1568, 1.6000000e-02, 2.8302313e-02, 0.0
1569, 1.6032328e-02, 2.8302313e-02, 0.0
1570, 1.6500000e-02, 2.8302313e-02, 0.0
1571, 1.7000000e-02, 2.8302313e-02, 0.0
1572, 1.7056755e-02, 2.8302313e-02, 0.0
1573, 1.7500000e-02, 2.8302313e-02, 0.0
1574, 1.8000000e-02, 2.8302313e-02, 0.0
1575, 1.8368883e-02, 2.8302313e-02, 0.0
1576, 1.8500000e-02, 2.8302313e-02, 0.0
1577, 1.9000000e-02, 2.8302313e-02, 0.0
1578, 1.9500000e-02, 2.8302313e-02, 0.0
1579, 1.9966484e-02, 2.8302313e-02, 0.0
1580, 2.0000000e-02, 2.8302313e-02, 0.0
1581, 2.0500000e-02, 2.8302313e-02, 0.0
1582, 2.1000000e-02, 2.8302313e-02, 0.0
1583, 2.1500000e-02, 2.8302313e-02, 0.0
1584, 2.1847326e-02, 2.8302313e-02, 0.0
1585, 2.2000000e-02, 2.8302313e-02, 0.0
1586, 2.2500000e-02, 2.8302313e-02, 0.0
1587, 2.2994457e-02, 2.8302313e-02, 0.0
1588, 2.3500000e-02, 2.8302313e-02, 0.0
1589, 2.3926312e-02, 2.8000000e-02, 0.0
1590, 2.3926312e-02, 2.8302313e-02, 0.0
1591, 8.0000000e-03, 2.8500000e-02, 0.0
1592, 7.5000000e-03, 2.8500000e-02, 0.0
1593, 8.5000000e-03, 2.8500000e-02, 0.0
1594, 9.0000000e-03, 2.8500000e-02, 0.0
1595, 9.5000000e-03, 2.8500000e-02, 0.0
1596, 1.0000000e-02, 2.8500000e-02, 0.0
1597, 1.0500000e-02, 2.8500000e-02, 0.0
1598, 1.1000000e-02, 2.8500000e-02, 0.0
1599, 1.1030671e-02, 2.8500000e-02, 0.0
1600, 1.1500000e-02, 2.8500000e-02, 0.0
1601, 1.2000000e-02, 2.8500000e-02, 0.0
1602, 1.2500000e-02, 2.8500000e-02, 0.0
1603, 1.3000000e-02, 2.8500000e-02, 0.0
1604, 1.3500000e-02, 2.8500000e-02, 0.0
1605, 1.4000000e-02, 2.8500000e-02, 0.0
1606, 1.4500000e-02, 2.8500000e-02, 0.0
1607, 1.4707561e-02, 2.8500000e-02, 0.0
1608, 1.4855500e-02, 2.8500000e-02, 0.0
1609, 1.5000000e-02, 2.8500000e-02, 0.0
1610, 1.5297833e-02, 2.8500000e-02, 0.0
1611, 1.5500000e-02, 2.8500000e-02, 0.0
1612, 1.6000000e-02, 2.8500000e-02, 0.0
1613, 1.6032328e-02, 2.8500000e-02, 0.0
1614, 1.6500000e-02, 2.8500000e-02, 0.0
1615, 1.7000000e-02, 2.8500000e-02, 0.0
1616, 1.7056755e-02, 2.8500000e-02, 0.0
1617, 1.7500000e-02, 2.8500000e-02, 0.0
1618, 1.8000000e-02, 2.8500000e-02, 0.0
1619, 1.8368883e-02, 2.8500000e-02, 0.0
1620, 1.8500000e-02, 2.8500000e-02, 0.0
1621, 1.9000000e-02, 2.8500000e-02, 0.0
1622, 1.9500000e-02, 2.8500000e-02, 0.0
1623, 1.9966484e-02, 2.8500000e-02, 0.0
1624, 2.0000000e-02, 2.8500000e-02, 0.0
1625, 2.0500000e-02, 2.8500000e-02, 0.0
1626, 2.1000000e-02, 2.8500000e-02, 0.0
1627, 2.1500000e-02, 2.8500000e-02, 0.0
1628, 2.1847326e-02, 2.8500000e-02, 0.0
1629, 2.2000000e-02, 2.8500000e-02, 0.0
1630, 2.2500000e-02, 2.8500000e-02, 0.0
1631, 2.2994457e-02, 2.8500000e-02, 0.0
1632, 2.3500000e-02, 2.8500000e-02, 0.0
1633, 2.3926312e-02, 2.8500000e-02, 0.0
1634, 2.4000000e-02, 2.8302313e-02, 0.0
1635, 2.4000000e-02, 2.8500000e-02, 0.0
1636, 8.0000000e-03, 2.9000000e-02, 0.0
1637, 7.5000000e-03, 2.9000000e-02, 0.0
1638, 8.5000000e-03, 2.9000000e-02, 0.0
1639, 9.0000000e-03, 2.9000000e-02, 0.0
1640, 9.5000000e-03, 2.9000000e-02, 0.0
1641, 1.0000000e-02, 2.9000000e-02, 0.0
1642, 1.0500000e-02, 2.9000000e-02, 0.0
1643, 1.1000000e-02, 2.9000000e-02, 0.0
1644, 1.1030671e-02, 2.9000000e-02, 0.0
1645, 1.1500000e-02, 2.9000000e-02, 0.0
1646, 1.2000000e-02, 2.9000000e-02, 0.0
1647, 1.2500000e-02, 2.9000000e-02, 0.0
1648, 1.3000000e-02, 2.9000000e-02, 0.0
1649, 1.3500000e-02, 2.9000000e-02, 0.0
1650, 1.4000000e-02, 2.9000000e-02, 0.0
1651, 1.4500000e-02, 2.9000000e-02, 0.0
1652, 1.4707561e-02, 2.9000000e-02, 0.0
1653, 1.4855500e-02, 2.9000000e-02, 0.0
1654, 1.5000000e-02, 2.9000000e-02, 0.0
1655, 1.5297833e-02, 2.9000000e-02, 0.0
1656, 1.5500000e-02, 2.9000000e-02, 0.0
1657, 1.6000000e-02, 2.9000000e-02, 0.0
1658, 1.6032328e-02, 2.9000000e-02, 0.0
1659, 1.6500000e-02, 2.9000000e-02, 0.0
1660, 1.7000000e-02, 2.9000000e-02, 0.0
1661, 1.7056755e-02, 2.9000000e-02, 0.0
1662, 1.7500000e-02, 2.9000000e-02, 0.0
1663, 1.8000000e-02, 2.9000000e-02, 0.0
1664, 1.8368883e-02, 2.9000000e-02, 0.0
1665, 1.8500000e-02, 2.9000000e-02, 0.0
1666, 1.9000000e-02, 2.9000000e-02, 0.0
1667, 1.9500000e-02, 2.9000000e-02, 0.0
1668, 1.9966484e-02, 2.9000000e-02, 0.0
1669, 2.0000000e-02, 2.9000000e-02, 0.0
1670, 2.0500000e-02, 2.9000000e-02, 0.0
1671, 2.1000000e-02, 2.9000000e-02, 0.0
1672, 2.1500000e-02, 2.9000000e-02, 0.0
1673, 2.1847326e-02, 2.9000000e-02, 0.0
1674, 2.2000000e-02, 2.9000000e-02, 0.0
1675, 2.2500000e-02, 2.9000000e-02, 0.0
1676, 2.2994457e-02, 2.9000000e-02, 0.0
1677, 2.3500000e-02, 2.9000000e-02, 0.0
1678, 2.3926312e-02, 2.9000000e-02, 0.0
1679, 2.4000000e-02, 2.9000000e-02, 0.0
1680, 2.4500000e-02, 2.8500000e-02, 0.0
1681, 2.4500000e-02, 2.9000000e-02, 0.0
1682, 8.0000000e-03, 2.9500000e-02, 0.0
1683, 7.5000000e-03, 2.9500000e-02, 0.0
1684, 8.5000000e-03, 2.9500000e-02, 0.0
1685, 9.0000000e-03, 2.9500000e-02, 0.0
1686, 9.5000000e-03, 2.9500000e-02, 0.0
1687, 1.0000000e-02, 2.9500000e-02, 0.0
1688, 1.0500000e-02, 2.9500000e-02, 0.0
1689, 1.1000000e-02, 2.9500000e-02, 0.0
1690, 1.1030671e-02, 2.9500000e-02, 0.0
1691, 1.1500000e-02, 2.9500000e-02, 0.0
1692, 1.2000000e-02, 2.9500000e-02, 0.0
1693, 1.2500000e-02, 2.9500000e-02, 0.0
1694, 1.3000000e-02, 2.9500000e-02, 0.0
1695, 1.3500000e-02, 2.9500000e-02, 0.0
1696, 1.4000000e-02, 2.9500000e-02, 0.0
1697, 1.4500000e-02, 2.9500000e-02, 0.0
1698, 1.4707561e-02, 2.9500000e-02, 0.0
1699, 1.4855500e-02, 2.9500000e-02, 0.0
1700, 1.5000000e-02, 2.9500000e-02, 0.0
1701, 1.5297833e-02, 2.9500000e-02, 0.0
1702, 1.5500000e-02, 2.9500000e-02, 0.0
1703, 1.6000000e-02, 2.9500000e-02, 0.0
1704, 1.6032328e-02, 2.9500000e-02, 0.0
1705, 1.6500000e-02, 2.9500000e-02, 0.0
1706, 1.7000000e-02, 2.9500000e-02, 0.0
1707, 1.7056755e-02, 2.9500000e-02, 0.0
1708, 1.7500000e-02, 2.9500000e-02, 0.0
1709, 1.8000000e-02, 2.9500000e-02, 0.0
1710, 1.8368883e-02, 2.9500000e-02, 0.0
1711, 1.8500000e-02, 2.9500000e-02, 0.0
1712, 1.9000000e-02, 2.9500000e-02, 0.0
1713, 1.9500000e-02, 2.9500000e-02, 0.0
1714, 1.9966484e-02, 2.9500000e-02, 0.0
1715, 2.0000000e-02, 2.9500000e-02, 0.0
1716, 2.0500000e-02, 2.9500000e-02, 0.0
1717, 2.1000000e-02, 2.9500000e-02, 0.0
1718, 2.1500000e-02, 2.9500000e-02, 0.0
1719, 2.1847326e-02, 2.9500000e-02, 0.0
1720, 2.2000000e-02, 2.9500000e-02, 0.0
1721, 2.2500000e-02, 2.9500000e-02, 0.0
1722, 2.2994457e-02, 2.9500000e-02, 0.0
1723, 2.3500000e-02, 2.9500000e-02, 0.0
1724, 2.3926312e-02, 2.9500000e-02, 0.0
1725, 2.4000000e-02, 2.9500000e-02, 0.0
1726, 2.4500000e-02, 2.9500000e-02, 0.0
1727, 2.5000000e-02, 2.9000000e-02, 0.0
1728, 2.5000000e-02, 2.9500000e-02, 0.0
1729, 8.0000000e-03, 3.0000000e-02, 0.0
1730, 7.5000000e-03, 3.0000000e-02, 0.0
1731, 8.5000000e-03, 3.0000000e-02, 0.0
1732, 9.0000000e-03, 3.0000000e-02, 0.0
1733, 9.5000000e-03, 3.0000000e-02, 0.0
1734, 1.0000000e-02, 3.0000000e-02, 0.0
1735, 1.0500000e-02, 3.0000000e-02, 0.0
1736, 1.1000000e-02, 3.0000000e-02, 0.0
1737, 1.1030671e-02, 3.0000000e-02, 0.0
1738, 1.1500000e-02, 3.0000000e-02, 0.0
1739, 1.2000000e-02, 3.0000000e-02, 0.0
1740, 1.2500000e-02, 3.0000000e-02, 0.0
1741, 1.3000000e-02, 3.0000000e-02, 0.0
1742, 1.3500000e-02, 3.0000000e-02, 0.0
1743, 1.4000000e-02, 3.0000000e-02, 0.0
1744, 1.4500000e-02, 3.0000000e-02, 0.0
1745, 1.4707561e-02, 3.0000000e-02, 0.0
1746, 1.4855500e-02, 3.0000000e-02, 0.0
1747, 1.5000000e-02, 3.0000000e-02, 0.0
1748, 1.5297833e-02, 3.0000000e-02, 0.0
1749, 1.5500000e-02, 3.0000000e-02, 0.0
1750, 1.6000000e-02, 3.0000000e-02, 0.0
1751, 1.6032328e-02, 3.0000000e-02, 0.0
1752, 1.6500000e-02, 3.0000000e-02, 0.0
1753, 1.7000000e-02, 3.0000000e-02, 0.0
1754, 1.7056755e-02, 3.0000000e-02, 0.0
1755, 1.7500000e-02, 3.0000000e-02, 0.0
1756, 1.8000000e-02, 3.0000000e-02, 0.0
1757, 1.8368883e-02, 3.0000000e-02, 0.0
1758, 1.8500000e-02, 3.0000000e-02, 0.0
1759, 1.9000000e-02, 3.0000000e-02, 0.0
1760, 1.9500000e-02, 3.0000000e-02, 0.0
1761, 1.9966484e-02, 3.0000000e-02, 0.0
1762, 2.0000000e-02, 3.0000000e-02, 0.0
1763, 2.0500000e-02, 3.0000000e-02, 0.0
1764, 2.1000000e-02, 3.0000000e-02, 0.0
1765, 2.1500000e-02, 3.0000000e-02, 0.0
1766, 2.1847326e-02, 3.0000000e-02, 0.0
1767, 2.2000000e-02, 3.0000000e-02, 0.0
1768, 2.2500000e-02, 3.0000000e-02, 0.0
1769, 2.2994457e-02, 3.0000000e-02, 0.0
1770, 2.3500000e-02, 3.0000000e-02, 0.0
1771, 2.3926312e-02, 3.0000000e-02, 0.0
1772, 2.4000000e-02, 3.0000000e-02, 0.0
1773, 2.4500000e-02, 3.0000000e-02, 0.0
1774, 2.5000000e-02, 3.0000000e-02, 0.0
1775, 2.5500000e-02, 2.9500000e-02, 0.0
1776, 2.5500000e-02, 3.0000000e-02, 0.0
1777, 8.0000000e-03, 3.0500000e-02, 0.0
1778, 7.5000000e-03, 3.0500000e-02, 0.0
1779, 8.5000000e-03, 3.0500000e-02, 0.0
1780, 9.0000000e-03, 3.0500000e-02, 0.0
1781, 9.5000000e-03, 3.0500000e-02, 0.0
1782, 1.0000000e-02, 3.0500000e-02, 0.0
1783, 1.0500000e-02, 3.0500000e-02, 0.0
1784, 1.1000000e-02, 3.0500000e-02, 0.0
1785, 1.1030671e-02, 3.0500000e-02, 0.0
1786, 1.1500000e-02, 3.0500000e-02, 0.0
1787, 1.2000000e-02, 3.0500000e-02, 0.0
1788, 1.2500000e-02, 3.0500000e-02, 0.0
1789, 1.3000000e-02, 3.0500000e-02, 0.0
1790, 1.3500000e-02, 3.0500000e-02, 0.0
1791, 1.4000000e-02, 3.0500000e-02, 0.0
1792, 1.4500000e-02, 3.0500000e-02, 0.0
1793, 1.4707561e-02, 3.0500000e-02, 0.0
1794, 1.4855500e-02, 3.0500000e-02, 0.0
1795, 1.5000000e-02, 3.0500000e-02, 0.0
1796, 1.5297833e-02, 3.0500000e-02, 0.0
1797, 1.5500000e-02, 3.0500000e-02, 0.0
1798, 1.6000000e-02, 3.0500000e-02, 0.0
1799, 1.6032328e-02, 3.0500000e-02, 0.0
1800, 1.6500000e-02, 3.0500000e-02, 0.0
1801, 1.7000000e-02, 3.0500000e-02, 0.0
1802, 1.7056755e-02, 3.0500000e-02, 0.0
1803, 1.7500000e-02, 3.0500000e-02, 0.0
1804, 1.8000000e-02, 3.0500000e-02, 0.0
1805, 1.8368883e-02, 3.0500000e-02, 0.0
1806, 1.8500000e-02, 3.0500000e-02, 0.0
1807, 1.9000000e-02, 3.0500000e-02, 0.0
1808, 1.9500000e-02, 3.0500000e-02, 0.0
1809, 1.9966484e-02, 3.0500000e-02, 0.0
1810, 2.0000000e-02, 3.0500000e-02, 0.0
1811, 2.0500000e-02, 3.0500000e-02, 0.0
1812, 2.1000000e-02, 3.0500000e-02, 0.0
1813, 2.1500000e-02, 3.0500000e-02, 0.0
1814, 2.1847326e-02, 3.0500000e-02, 0.0
1815, 2.2000000e-02, 3.0500000e-02, 0.0
1816, 2.2500000e-02, 3.0500000e-02, 0.0
1817, 2.2994457e-02, 3.0500000e-02, 0.0
1818, 2.3500000e-02, 3.0500000e-02, 0.0
1819, 2.3926312e-02, 3.0500000e-02, 0.0
1820, 2.4000000e-02, 3.0500000e-02, 0.0
1821, 2.4500000e-02, 3.0500000e-02, 0.0
1822, 2.5000000e-02, 3.0500000e-02, 0.0
1823, 2.5500000e-02, 3.0500000e-02, 0.0
1824, 2.5777404e-02, 3.0000000e-02, 0.0
1825, 2.5777404e-02, 3.0500000e-02, 0.0
1826, 2.6000000e-02, 3.0000000e-02, 0.0
1827, 2.6000000e-02, 3.0500000e-02, 0.0
1828, 8.0000000e-03, 3.1000000e-02, 0.0
1829, 7.5000000e-03, 3.1000000e-02, 0.0
1830, 8.5000000e-03, 3.1000000e-02, 0.0
1831, 9.0000000e-03, 3.1000000e-02, 0.0
1832, 9.5000000e-03, 3.1000000e-02, 0.0
1833, 1.0000000e-02, 3.1000000e-02, 0.0
1834, 1.0500000e-02, 3.1000000e-02, 0.0
1835, 1.1000000e-02, 3.1000000e-02, 0.0
1836, 1.1030671e-02, 3.1000000e-02, 0.0
1837, 1.1500000e-02, 3.1000000e-02, 0.0
1838, 1.2000000e-02, 3.1000000e-02, 0.0
1839, 1.2500000e-02, 3.1000000e-02, 0.0
1840, 1.3000000e-02, 3.1000000e-02, 0.0
1841, 1.3500000e-02, 3.1000000e-02, 0.0
1842, 1.4000000e-02, 3.1000000e-02, 0.0
1843, 1.4500000e-02, 3.1000000e-02, 0.0
1844, 1.4707561e-02, 3.1000000e-02, 0.0
1845, 1.4855500e-02, 3.1000000e-02, 0.0
1846, 1.5000000e-02, 3.1000000e-02, 0.0
1847, 1.5297833e-02, 3.1000000e-02, 0.0
1848, 1.5500000e-02, 3.1000000e-02, 0.0
1849, 1.6000000e-02, 3.1000000e-02, 0.0
1850, 1.6032328e-02, 3.1000000e-02, 0.0
1851, 1.6500000e-02, 3.1000000e-02, 0.0
1852, 1.7000000e-02, 3.1000000e-02, 0.0
1853, 1.7056755e-02, 3.1000000e-02, 0.0
1854, 1.7500000e-02, 3.1000000e-02, 0.0
1855, 1.8000000e-02, 3.1000000e-02, 0.0
1856, 1.8368883e-02, 3.1000000e-02, 0.0
1857, 1.8500000e-02, 3.1000000e-02, 0.0
1858, 1.9000000e-02, 3.1000000e-02, 0.0
1859, 1.9500000e-02, 3.1000000e-02, 0.0
1860, 1.9966484e-02, 3.1000000e-02, 0.0
1861, 2.0000000e-02, 3.1000000e-02, 0.0
1862, 2.0500000e-02, 3.1000000e-02, 0.0
1863, 2.1000000e-02, 3.1000000e-02, 0.0
1864, 2.1500000e-02, 3.1000000e-02, 0.0
1865, 2.1847326e-02, 3.1000000e-02, 0.0
1866, 2.2000000e-02, 3.1000000e-02, 0.0
1867, 2.2500000e-02, 3.1000000e-02, 0.0
1868, 2.2994457e-02, 3.1000000e-02, 0.0
1869, 2.3500000e-02, 3.1000000e-02, 0.0
1870, 2.3926312e-02, 3.1000000e-02, 0.0
1871, 2.4000000e-02, 3.1000000e-02, 0.0
1872, 2.4500000e-02, 3.1000000e-02, 0.0
1873, 2.5000000e-02, 3.1000000e-02, 0.0
1874, 2.5500000e-02, 3.1000000e-02, 0.0
1875, 2.5777404e-02, 3.1000000e-02, 0.0
1876, 2.6000000e-02, 3.1000000e-02, 0.0
1877, 2.6449813e-02, 3.0500000e-02, 0.0
1878, 2.6449813e-02, 3.1000000e-02, 0.0
1879, 2.6500000e-02, 3.0500000e-02, 0.0
1880, 2.6500000e-02, 3.1000000e-02, 0.0
1881, 2.7000000e-02, 3.0500000e-02, 0.0
1882, 2.7000000e-02, 3.1000000e-02, 0.0
1883, 8.0000000e-03, 3.1500000e-02, 0.0
1884, 7.5000000e-03, 3.1500000e-02, 0.0
1885, 8.5000000e-03, 3.1500000e-02, 0.0
1886, 9.0000000e-03, 3.1500000e-02, 0.0
1887, 9.5000000e-03, 3.1500000e-02, 0.0
1888, 1.0000000e-02, 3.1500000e-02, 0.0
1889, 1.0500000e-02, 3.1500000e-02, 0.0
1890, 1.1000000e-02, 3.1500000e-02, 0.0
1891, 1.1030671e-02, 3.1500000e-02, 0.0
1892, 1.1500000e-02, 3.1500000e-02, 0.0
1893, 1.2000000e-02, 3.1500000e-02, 0.0
1894, 1.2500000e-02, 3.1500000e-02, 0.0
1895, 1.3000000e-02, 3.1500000e-02, 0.0
1896, 1.3500000e-02, 3.1500000e-02, 0.0
1897, 1.4000000e-02, 3.1500000e-02, 0.0
1898, 1.4500000e-02, 3.1500000e-02, 0.0
1899, 1.4707561e-02, 3.1500000e-02, 0.0
1900, 1.4855500e-02, 3.1500000e-02, 0.0
1901, 1.5000000e-02, 3.1500000e-02, 0.0
1902, 1.5297833e-02, 3.1500000e-02, 0.0
1903, 1.5500000e-02, 3.1500000e-02, 0.0
1904, 1.6000000e-02, 3.1500000e-02, 0.0
1905, 1.6032328e-02, 3.1500000e-02, 0.0
1906, 1.6500000e-02, 3.1500000e-02, 0.0
1907, 1.7000000e-02, 3.1500000e-02, 0.0
1908, 1.7056755e-02, 3.1500000e-02, 0.0
1909, 1.7500000e-02, 3.1500000e-02, 0.0
1910, 1.8000000e-02, 3.1500000e-02, 0.0
1911, 1.8368883e-02, 3.1500000e-02, 0.0
1912, 1.8500000e-02, 3.1500000e-02, 0.0
1913, 1.9000000e-02, 3.1500000e-02, 0.0
1914, 1.9500000e-02, 3.1500000e-02, 0.0
1915, 1.9966484e-02, 3.1500000e-02, 0.0
1916, 2.0000000e-02, 3.1500000e-02, 0.0
1917, 2.0500000e-02, 3.1500000e-02, 0.0
1918, 2.1000000e-02, 3.1500000e-02, 0.0
1919, 2.1500000e-02, 3.1500000e-02, 0.0
1920, 2.1847326e-02, 3.1500000e-02, 0.0
1921, 2.2000000e-02, 3.1500000e-02, 0.0
1922, 2.2500000e-02, 3.1500000e-02, 0.0
1923, 2.2994457e-02, 3.1500000e-02, 0.0
1924, 2.3500000e-02, 3.1500000e-02, 0.0
1925, 2.3926312e-02, 3.1500000e-02, 0.0
1926, 2.4000000e-02, 3.1500000e-02, 0.0
1927, 2.4500000e-02, 3.1500000e-02, 0.0
1928, 2.5000000e-02, 3.1500000e-02, 0.0
1929, 2.5500000e-02, 3.1500000e-02, 0.0
1930, 2.5777404e-02, 3.1500000e-02, 0.0
1931, 2.6000000e-02, 3.1500000e-02, 0.0
1932, 2.6449813e-02, 3.1500000e-02, 0.0
1933, 2.6500000e-02, 3.1500000e-02, 0.0
1934, 2.7000000e-02, 3.1500000e-02, 0.0
1935, 2.7500000e-02, 3.1000000e-02, 0.0
1936, 2.7500000e-02, 3.1500000e-02, 0.0
1937, 8.0000000e-03, 3.2000000e-02, 0.0
1938, 7.5000000e-03, 3.2000000e-02, 0.0
1939, 8.5000000e-03, 3.2000000e-02, 0.0
1940, 9.0000000e-03, 3.2000000e-02, 0.0
1941, 9.5000000e-03, 3.2000000e-02, 0.0
1942, 1.0000000e-02, 3.2000000e-02, 0.0
1943, 1.0500000e-02, 3.2000000e-02, 0.0
1944, 1.1000000e-02, 3.2000000e-02, 0.0
1945, 1.1030671e-02, 3.2000000e-02, 0.0
1946, 1.1500000e-02, 3.2000000e-02, 0.0
1947, 1.2000000e-02, 3.2000000e-02, 0.0
1948, 1.2500000e-02, 3.2000000e-02, 0.0
1949, 1.3000000e-02, 3.2000000e-02, 0.0
1950, 1.3500000e-02, 3.2000000e-02, 0.0
1951, 1.4000000e-02, 3.2000000e-02, 0.0
1952, 1.4500000e-02, 3.2000000e-02, 0.0
1953, 1.4707561e-02, 3.2000000e-02, 0.0
1954, 1.4855500e-02, 3.2000000e-02, 0.0
1955, 1.5000000e-02, 3.2000000e-02, 0.0
1956, 1.5297833e-02, 3.2000000e-02, 0.0
1957, 1.5500000e-02, 3.2000000e-02, 0.0
1958, 1.6000000e-02, 3.2000000e-02, 0.0
1959, 1.6032328e-02, 3.2000000e-02, 0.0
1960, 1.6500000e-02, 3.2000000e-02, 0.0
1961, 1.7000000e-02, 3.2000000e-02, 0.0
1962, 1.7056755e-02, 3.2000000e-02, 0.0
1963, 1.7500000e-02, 3.2000000e-02, 0.0
1964, 1.8000000e-02, 3.2000000e-02, 0.0
1965, 1.8368883e-02, 3.2000000e-02, 0.0
1966, 1.8500000e-02, 3.2000000e-02, 0.0
1967, 1.9000000e-02, 3.2000000e-02, 0.0
1968, 1.9500000e-02, 3.2000000e-02, 0.0
1969, 1.9966484e-02, 3.2000000e-02, 0.0
1970, 2.0000000e-02, 3.2000000e-02, 0.0
1971, 2.0500000e-02, 3.2000000e-02, 0.0
1972, 2.1000000e-02, 3.2000000e-02, 0.0
1973, 2.1500000e-02, 3.2000000e-02, 0.0
1974, 2.1847326e-02, 3.2000000e-02, 0.0
1975, 2.2000000e-02, 3.2000000e-02, 0.0
1976, 2.2500000e-02, 3.2000000e-02, 0.0
1977, 2.2994457e-02, 3.2000000e-02, 0.0
1978, 2.3500000e-02, 3.2000000e-02, 0.0
1979, 2.3926312e-02, 3.2000000e-02, 0.0
1980, 2.4000000e-02, 3.2000000e-02, 0.0
1981, 2.4500000e-02, 3.2000000e-02, 0.0
1982, 2.5000000e-02, 3.2000000e-02, 0.0
1983, 2.5500000e-02, 3.2000000e-02, 0.0
1984, 2.5777404e-02, 3.2000000e-02, 0.0
1985, 2.6000000e-02, 3.2000000e-02, 0.0
1986, 2.6449813e-02, 3.2000000e-02, 0.0
1987, 2.6500000e-02, 3.2000000e-02, 0.0
1988, 2.7000000e-02, 3.2000000e-02, 0.0
1989, 2.7500000e-02, 3.2000000e-02, 0.0
1990, 2.8000000e-02, 3.1500000e-02, 0.0
1991, 2.8000000e-02, 3.2000000e-02, 0.0
1992, 8.0000000e-03, 3.2500000e-02, 0.0
1993, 7.5000000e-03, 3.2500000e-02, 0.0
1994, 8.5000000e-03, 3.2500000e-02, 0.0
1995, 9.0000000e-03, 3.2500000e-02, 0.0
1996, 9.5000000e-03, 3.2500000e-02, 0.0
1997, 1.0000000e-02, 3.2500000e-02, 0.0
1998, 1.0500000e-02, 3.2500000e-02, 0.0
1999, 1.1000000e-02, 3.2500000e-02, 0.0
2000, 1.1030671e-02, 3.2500000e-02, 0.0
2001, 1.1500000e-02, 3.2500000e-02, 0.0
2002, 1.2000000e-02, 3.2500000e-02, 0.0
2003, 1.2500000e-02, 3.2500000e-02, 0.0
2004, 1.3000000e-02, 3.2500000e-02, 0.0
2005, 1.3500000e-02, 3.2500000e-02, 0.0
2006, 1.4000000e-02, 3.2500000e-02, 0.0
2007, 1.4500000e-02, 3.2500000e-02, 0.0
2008, 1.4707561e-02, 3.2500000e-02, 0.0
2009, 1.4855500e-02, 3.2500000e-02, 0.0
2010, 1.5000000e-02, 3.2500000e-02, 0.0
2011, 1.5297833e-02, 3.2500000e-02, 0.0
2012, 1.5500000e-02, 3.2500000e-02, 0.0
2013, 1.6000000e-02, 3.2500000e-02, 0.0
2014, 1.6032328e-02, 3.2500000e-02, 0.0
2015, 1.6500000e-02, 3.2500000e-02, 0.0
2016, 1.7000000e-02, 3.2500000e-02, 0.0
2017, 1.7056755e-02, 3.2500000e-02, 0.0
2018, 1.7500000e-02, 3.2500000e-02, 0.0
2019, 1.8000000e-02, 3.2500000e-02, 0.0
2020, 1.8368883e-02, 3.2500000e-02, 0.0
2021, 1.8500000e-02, 3.2500000e-02, 0.0
2022, 1.9000000e-02, 3.2500000e-02, 0.0
2023, 1.9500000e-02, 3.2500000e-02, 0.0
2024, 1.9966484e-02, 3.2500000e-02, 0.0
2025, 2.0000000e-02, 3.2500000e-02, 0.0
2026, 2.0500000e-02, 3.2500000e-02, 0.0
2027, 2.1000000e-02, 3.2500000e-02, 0.0
2028, 2.1500000e-02, 3.2500000e-02, 0.0
2029, 2.1847326e-02, 3.2500000e-02, 0.0
2030, 2.2000000e-02, 3.2500000e-02, 0.0
2031, 2.2500000e-02, 3.2500000e-02, 0.0
2032, 2.2994457e-02, 3.2500000e-02, 0.0
2033, 2.3500000e-02, 3.2500000e-02, 0.0
2034, 2.3926312e-02, 3.2500000e-02, 0.0
2035, 2.4000000e-02, 3.2500000e-02, 0.0
2036, 2.4500000e-02, 3.2500000e-02, 0.0
2037, 2.5000000e-02, 3.2500000e-02, 0.0
2038, 2.5500000e-02, 3.2500000e-02, 0.0
2039, 2.5777404e-02, 3.2500000e-02, 0.0
2040, 2.6000000e-02, 3.2500000e-02, 0.0
2041, 2.6449813e-02, 3.2500000e-02, 0.0
2042, 2.6500000e-02, 3.2500000e-02, 0.0
2043, 2.7000000e-02, 3.2500000e-02, 0.0
2044, 2.7500000e-02, 3.2500000e-02, 0.0
2045, 2.8000000e-02, 3.2500000e-02, 0.0
2046, 2.8444995e-02, 3.2000000e-02, 0.0
2047, 2.8444995e-02, 3.2500000e-02, 0.0
2048, 2.8500000e-02, 3.2000000e-02, 0.0
2049, 2.8500000e-02, 3.2500000e-02, 0.0
2050, 2.9000000e-02, 3.2000000e-02, 0.0
2051, 2.9000000e-02, 3.2500000e-02, 0.0
2052, 8.0000000e-03, 3.2550569e-02, 0.0
2053, 7.5000000e-03, 3.2550569e-02, 0.0
2054, 8.5000000e-03, 3.2550569e-02, 0.0
2055, 9.0000000e-03, 3.2550569e-02, 0.0
2056, 9.5000000e-03, 3.2550569e-02, 0.0
2057, 1.0000000e-02, 3.2550569e-02, 0.0
2058, 1.0500000e-02, 3.2550569e-02, 0.0
2059, 1.1000000e-02, 3.2550569e-02, 0.0
2060, 1.1030671e-02, 3.2550569e-02, 0.0
2061, 1.1500000e-02, 3.2550569e-02, 0.0
2062, 1.2000000e-02, 3.2550569e-02, 0.0
2063, 1.2500000e-02, 3.2550569e-02, 0.0
2064, 1.3000000e-02, 3.2550569e-02, 0.0
2065, 1.3500000e-02, 3.2550569e-02, 0.0
2066, 1.4000000e-02, 3.2550569e-02, 0.0
2067, 1.4500000e-02, 3.2550569e-02, 0.0
2068, 1.4707561e-02, 3.2550569e-02, 0.0
2069, 1.4855500e-02, 3.2550569e-02, 0.0
2070, 1.5000000e-02, 3.2550569e-02, 0.0
2071, 1.5297833e-02, 3.2550569e-02, 0.0
2072, 1.5500000e-02, 3.2550569e-02, 0.0
2073, 1.6000000e-02, 3.2550569e-02, 0.0
2074, 1.6032328e-02, 3.2550569e-02, 0.0
2075, 1.6500000e-02, 3.2550569e-02, 0.0
2076, 1.7000000e-02, 3.2550569e-02, 0.0
2077, 1.7056755e-02, 3.2550569e-02, 0.0
2078, 1.7500000e-02, 3.2550569e-02, 0.0
2079, 1.8000000e-02, 3.2550569e-02, 0.0
2080, 1.8368883e-02, 3.2550569e-02, 0.0
2081, 1.8500000e-02, 3.2550569e-02, 0.0
2082, 1.9000000e-02, 3.2550569e-02, 0.0
2083, 1.9500000e-02, 3.2550569e-02, 0.0
2084, 1.9966484e-02, 3.2550569e-02, 0.0
2085, 2.0000000e-02, 3.2550569e-02, 0.0
2086, 2.0500000e-02, 3.2550569e-02, 0.0
2087, 2.1000000e-02, 3.2550569e-02, 0.0
2088, 2.1500000e-02, 3.2550569e-02, 0.0
2089, 2.1847326e-02, 3.2550569e-02, 0.0
2090, 2.2000000e-02, 3.2550569e-02, 0.0
2091, 2.2500000e-02, 3.2550569e-02, 0.0
2092, 2.2994457e-02, 3.2550569e-02, 0.0
2093, 2.3500000e-02, 3.2550569e-02, 0.0
2094, 2.3926312e-02, 3.2550569e-02, 0.0
2095, 2.4000000e-02, 3.2550569e-02, 0.0
2096, 2.4500000e-02, 3.2550569e-02, 0.0
2097, 2.5000000e-02, 3.2550569e-02, 0.0
2098, 2.5500000e-02, 3.2550569e-02, 0.0
2099, 2.5777404e-02, 3.2550569e-02, 0.0
2100, 2.6000000e-02, 3.2550569e-02, 0.0
2101, 2.6449813e-02, 3.2550569e-02, 0.0
2102, 2.6500000e-02, 3.2550569e-02, 0.0
2103, 2.7000000e-02, 3.2550569e-02, 0.0
2104, 2.7500000e-02, 3.2550569e-02, 0.0
2105, 2.8000000e-02, 3.2550569e-02, 0.0
2106, 2.8444995e-02, 3.2550569e-02, 0.0
2107, 2.8500000e-02, 3.2550569e-02, 0.0
2108, 2.9000000e-02, 3.2550569e-02, 0.0
2109, 2.9166998e-02, 3.2500000e-02, 0.0
2110, 2.9166998e-02, 3.2550569e-02, 0.0
2111, 8.0000000e-03, 3.3000000e-02, 0.0
2112, 7.5000000e-03, 3.3000000e-02, 0.0
2113, 8.5000000e-03, 3.3000000e-02, 0.0
2114, 9.0000000e-03, 3.3000000e-02, 0.0
2115, 9.5000000e-03, 3.3000000e-02, 0.0
2116, 1.0000000e-02, 3.3000000e-02, 0.0
2117, 1.0500000e-02, 3.3000000e-02, 0.0
2118, 1.1000000e-02, 3.3000000e-02, 0.0
2119, 1.1030671e-02, 3.3000000e-02, 0.0
2120, 1.1500000e-02, 3.3000000e-02, 0.0
2121, 1.2000000e-02, 3.3000000e-02, 0.0
2122, 1.2500000e-02, 3.3000000e-02, 0.0
2123, 1.3000000e-02, 3.3000000e-02, 0.0
2124, 1.3500000e-02, 3.3000000e-02, 0.0
2125, 1.4000000e-02, 3.3000000e-02, 0.0
2126, 1.4500000e-02, 3.3000000e-02, 0.0
2127, 1.4707561e-02, 3.3000000e-02, 0.0
2128, 1.4855500e-02, 3.3000000e-02, 0.0
2129, 1.5000000e-02, 3.3000000e-02, 0.0
2130, 1.5297833e-02, 3.3000000e-02, 0.0
2131, 1.5500000e-02, 3.3000000e-02, 0.0
2132, 1.6000000e-02, 3.3000000e-02, 0.0
2133, 1.6032328e-02, 3.3000000e-02, 0.0
2134, 1.6500000e-02, 3.3000000e-02, 0.0
2135, 1.7000000e-02, 3.3000000e-02, 0.0
2136, 1.7056755e-02, 3.3000000e-02, 0.0
2137, 1.7500000e-02, 3.3000000e-02, 0.0
2138, 1.8000000e-02, 3.3000000e-02, 0.0
2139, 1.8368883e-02, 3.3000000e-02, 0.0
2140, 1.8500000e-02, 3.3000000e-02, 0.0
2141, 1.9000000e-02, 3.3000000e-02, 0.0
2142, 1.9500000e-02, 3.3000000e-02, 0.0
2143, 1.9966484e-02, 3.3000000e-02, 0.0
2144, 2.0000000e-02, 3.3000000e-02, 0.0
2145, 2.0500000e-02, 3.3000000e-02, 0.0
2146, 2.1000000e-02, 3.3000000e-02, 0.0
2147, 2.1500000e-02, 3.3000000e-02, 0.0
2148, 2.1847326e-02, 3.3000000e-02, 0.0
2149, 2.2000000e-02, 3.3000000e-02, 0.0
2150, 2.2500000e-02, 3.3000000e-02, 0.0
2151, 2.2994457e-02, 3.3000000e-02, 0.0
2152, 2.3500000e-02, 3.3000000e-02, 0.0
2153, 2.3926312e-02, 3.3000000e-02, 0.0
2154, 2.4000000e-02, 3.3000000e-02, 0.0
2155, 2.4500000e-02, 3.3000000e-02, 0.0
2156, 2.5000000e-02, 3.3000000e-02, 0.0
2157, 2.5500000e-02, 3.3000000e-02, 0.0
2158, 2.5777404e-02, 3.3000000e-02, 0.0
2159, 2.6000000e-02, 3.3000000e-02, 0.0
2160, 2.6449813e-02, 3.3000000e-02, 0.0
2161, 2.6500000e-02, 3.3000000e-02, 0.0
2162, 2.7000000e-02, 3.3000000e-02, 0.0
2163, 2.7500000e-02, 3.3000000e-02, 0.0
2164, 2.8000000e-02, 3.3000000e-02, 0.0
2165, 2.8444995e-02, 3.3000000e-02, 0.0
2166, 2.8500000e-02, 3.3000000e-02, 0.0
2167, 2.9000000e-02, 3.3000000e-02, 0.0
2168, 2.9166998e-02, 3.3000000e-02, 0.0
2169, 2.9500000e-02, 3.2550569e-02, 0.0
2170, 2.9500000e-02, 3.3000000e-02, 0.0
2171, 8.0000000e-03, 3.3500000e-02, 0.0
2172, 7.5000000e-03, 3.3500000e-02, 0.0
2173, 8.5000000e-03, 3.3500000e-02, 0.0
2174, 9.0000000e-03, 3.3500000e-02, 0.0
2175, 9.5000000e-03, 3.3500000e-02, 0.0
2176, 1.0000000e-02, 3.3500000e-02, 0.0
2177, 1.0500000e-02, 3.3500000e-02, 0.0
2178, 1.1000000e-02, 3.3500000e-02, 0.0
2179, 1.1030671e-02, 3.3500000e-02, 0.0
2180, 1.1500000e-02, 3.3500000e-02, 0.0
2181, 1.2000000e-02, 3.3500000e-02, 0.0
2182, 1.2500000e-02, 3.3500000e-02, 0.0
2183, 1.3000000e-02, 3.3500000e-02, 0.0
2184, 1.3500000e-02, 3.3500000e-02, 0.0
2185, 1.4000000e-02, 3.3500000e-02, 0.0
2186, 1.4500000e-02, 3.3500000e-02, 0.0
2187, 1.4707561e-02, 3.3500000e-02, 0.0
2188, 1.4855500e-02, 3.3500000e-02, 0.0
2189, 1.5000000e-02, 3.3500000e-02, 0.0
2190, 1.5297833e-02, 3.3500000e-02, 0.0
2191, 1.5500000e-02, 3.3500000e-02, 0.0
2192, 1.6000000e-02, 3.3500000e-02, 0.0
2193, 1.6032328e-02, 3.3500000e-02, 0.0
2194, 1.6500000e-02, 3.3500000e-02, 0.0
2195, 1.7000000e-02, 3.3500000e-02, 0.0
2196, 1.7056755e-02, 3.3500000e-02, 0.0
2197, 1.7500000e-02, 3.3500000e-02, 0.0
2198, 1.8000000e-02, 3.3500000e-02, 0.0
2199, 1.8368883e-02, 3.3500000e-02, 0.0
2200, 1.8500000e-02, 3.3500000e-02, 0.0
2201, 1.9000000e-02, 3.3500000e-02, 0.0
2202, 1.9500000e-02, 3.3500000e-02, 0.0
2203, 1.9966484e-02, 3.3500000e-02, 0.0
2204, 2.0000000e-02, 3.3500000e-02, 0.0
2205, 2.0500000e-02, 3.3500000e-02, 0.0
2206, 2.1000000e-02, 3.3500000e-02, 0.0
2207, 2.1500000e-02, 3.3500000e-02, 0.0
2208, 2.1847326e-02, 3.3500000e-02, 0.0
2209, 2.2000000e-02, 3.3500000e-02, 0.0
2210, 2.2500000e-02, 3.3500000e-02, 0.0
2211, 2.2994457e-02, 3.3500000e-02, 0.0
2212, 2.3500000e-02, 3.3500000e-02, 0.0
2213, 2.3926312e-02, 3.3500000e-02, 0.0
2214, 2.4000000e-02, 3.3500000e-02, 0.0
2215, 2.4500000e-02, 3.3500000e-02, 0.0
2216, 2.5000000e-02, 3.3500000e-02, 0.0
2217, 2.5500000e-02, 3.3500000e-02, 0.0
2218, 2.5777404e-02, 3.3500000e-02, 0.0
2219, 2.6000000e-02, 3.3500000e-02, 0.0
2220, 2.6449813e-02, 3.3500000e-02, 0.0
2221, 2.6500000e-02, 3.3500000e-02, 0.0
2222, 2.7000000e-02, 3.3500000e-02, 0.0
2223, 2.7500000e-02, 3.3500000e-02, 0.0
2224, 2.8000000e-02, 3.3500000e-02, 0.0
2225, 2.8444995e-02, 3.3500000e-02, 0.0
2226, 2.8500000e-02, 3.3500000e-02, 0.0
2227, 2.9000000e-02, 3.3500000e-02, 0.0
2228, 2.9166998e-02, 3.3500000e-02, 0.0
2229, 2.9500000e-02, 3.3500000e-02, 0.0
2230, 3.0000000e-02, 3.3000000e-02, 0.0
2231, 3.0000000e-02, 3.3500000e-02, 0.0
2232, 3.0500000e-02, 3.3000000e-02, 0.0
2233, 3.0500000e-02, 3.3500000e-02, 0.0
2234, 8.0000000e-03, 3.4000000e-02, 0.0
2235, 7.5000000e-03, 3.4000000e-02, 0.0
2236, 8.5000000e-03, 3.4000000e-02, 0.0
2237, 9.0000000e-03, 3.4000000e-02, 0.0
2238, 9.5000000e-03, 3.4000000e-02, 0.0
2239, 1.0000000e-02, 3.4000000e-02, 0.0
2240, 1.0500000e-02, 3.4000000e-02, 0.0
2241, 1.1000000e-02, 3.4000000e-02, 0.0
2242, 1.1030671e-02, 3.4000000e-02, 0.0
2243, 1.1500000e-02, 3.4000000e-02, 0.0
2244, 1.2000000e-02, 3.4000000e-02, 0.0
2245, 1.2500000e-02, 3.4000000e-02, 0.0
2246, 1.3000000e-02, 3.4000000e-02, 0.0
2247, 1.3500000e-02, 3.4000000e-02, 0.0
2248, 1.4000000e-02, 3.4000000e-02, 0.0
2249, 1.4500000e-02, 3.4000000e-02, 0.0
2250, 1.4707561e-02, 3.4000000e-02, 0.0
2251, 1.4855500e-02, 3.4000000e-02, 0.0
2252, 1.5000000e-02, 3.4000000e-02, 0.0
2253, 1.5297833e-02, 3.4000000e-02, 0.0
2254, 1.5500000e-02, 3.4000000e-02, 0.0
2255, 1.6000000e-02, 3.4000000e-02, 0.0
2256, 1.6032328e-02, 3.4000000e-02, 0.0
2257, 1.6500000e-02, 3.4000000e-02, 0.0
2258, 1.7000000e-02, 3.4000000e-02, 0.0
2259, 1.7056755e-02, 3.4000000e-02, 0.0
2260, 1.7500000e-02, 3.4000000e-02, 0.0
2261, 1.8000000e-02, 3.4000000e-02, 0.0
2262, 1.8368883e-02, 3.4000000e-02, 0.0
2263, 1.8500000e-02, 3.4000000e-02, 0.0
2264, 1.9000000e-02, 3.4000000e-02, 0.0
2265, 1.9500000e-02, 3.4000000e-02, 0.0
2266, 1.9966484e-02, 3.4000000e-02, 0.0
2267, 2.0000000e-02, 3.4000000e-02, 0.0
2268, 2.0500000e-02, 3.4000000e-02, 0.0
2269, 2.1000000e-02, 3.4000000e-02, 0.0
2270, 2.1500000e-02, 3.4000000e-02, 0.0
2271, 2.1847326e-02, 3.4000000e-02, 0.0
2272, 2.2000000e-02, 3.4000000e-02, 0.0
2273, 2.2500000e-02, 3.4000000e-02, 0.0
2274, 2.2994457e-02, 3.4000000e-02, 0.0
2275, 2.3500000e-02, 3.4000000e-02, 0.0
2276, 2.3926312e-02, 3.4000000e-02, 0.0
2277, 2.4000000e-02, 3.4000000e-02, 0.0
2278, 2.4500000e-02, 3.4000000e-02, 0.0
2279, 2.5000000e-02, 3.4000000e-02, 0.0
2280, 2.5500000e-02, 3.4000000e-02, 0.0
2281, 2.5777404e-02, 3.4000000e-02, 0.0
2282, 2.6000000e-02, 3.4000000e-02, 0.0
2283, 2.6449813e-02, 3.4000000e-02, 0.0
2284, 2.6500000e-02, 3.4000000e-02, 0.0
2285, 2.7000000e-02, 3.4000000e-02, 0.0
2286, 2.7500000e-02, 3.4000000e-02, 0.0
2287, 2.8000000e-02, 3.4000000e-02, 0.0
2288, 2.8444995e-02, 3.4000000e-02, 0.0
2289, 2.8500000e-02, 3.4000000e-02, 0.0
2290, 2.9000000e-02, 3.4000000e-02, 0.0
2291, 2.9166998e-02, 3.4000000e-02, 0.0
2292, 2.9500000e-02, 3.4000000e-02, 0.0
2293, 3.0000000e-02, 3.4000000e-02, 0.0
2294, 3.0500000e-02, 3.4000000e-02, 0.0
2295, 3.1000000e-02, 3.3500000e-02, 0.0
2296, 3.1000000e-02, 3.4000000e-02, 0.0
2297, 8.0000000e-03, 3.4426930e-02, 0.0
2298, 7.5000000e-03, 3.4426930e-02, 0.0
2299, 8.5000000e-03, 3.4426930e-02, 0.0
2300, 9.0000000e-03, 3.4426930e-02, 0.0
2301, 9.5000000e-03, 3.4426930e-02, 0.0
2302, 1.0000000e-02, 3.4426930e-02, 0.0
2303, 1.0500000e-02, 3.4426930e-02, 0.0
2304, 1.1000000e-02, 3.4426930e-02, 0.0
2305, 1.1030671e-02, 3.4426930e-02, 0.0
2306, 1.1500000e-02, 3.4426930e-02, 0.0
2307, 1.2000000e-02, 3.4426930e-02, 0.0
2308, 1.2500000e-02, 3.4426930e-02, 0.0
2309, 1.3000000e-02, 3.4426930e-02, 0.0
2310, 1.3500000e-02, 3.4426930e-02, 0.0
2311, 1.4000000e-02, 3.4426930e-02, 0.0
2312, 1.4500000e-02, 3.4426930e-02, 0.0
2313, 1.4707561e-02, 3.4426930e-02, 0.0
2314, 1.4855500e-02, 3.4426930e-02, 0.0
2315, 1.5000000e-02, 3.4426930e-02, 0.0
2316, 1.5297833e-02, 3.4426930e-02, 0.0
2317, 1.5500000e-02, 3.4426930e-02, 0.0
2318, 1.6000000e-02, 3.4426930e-02, 0.0
2319, 1.6032328e-02, 3.4426930e-02, 0.0
2320, 1.6500000e-02, 3.4426930e-02, 0.0
2321, 1.7000000e-02, 3.4426930e-02, 0.0
2322, 1.7056755e-02, 3.4426930e-02, 0.0
2323, 1.7500000e-02, 3.4426930e-02, 0.0
2324, 1.8000000e-02, 3.4426930e-02, 0.0
2325, 1.8368883e-02, 3.4426930e-02, 0.0
2326, 1.8500000e-02, 3.4426930e-02, 0.0
2327, 1.9000000e-02, 3.4426930e-02, 0.0
2328, 1.9500000e-02, 3.4426930e-02, 0.0
2329, 1.9966484e-02, 3.4426930e-02, 0.0
2330, 2.0000000e-02, 3.4426930e-02, 0.0
2331, 2.0500000e-02, 3.4426930e-02, 0.0
2332, 2.1000000e-02, 3.4426930e-02, 0.0
2333, 2.1500000e-02, 3.4426930e-02, 0.0
2334, 2.1847326e-02, 3.4426930e-02, 0.0
2335, 2.2000000e-02, 3.4426930e-02, 0.0
2336, 2.2500000e-02, 3.4426930e-02, 0.0
2337, 2.2994457e-02, 3.4426930e-02, 0.0
2338, 2.3500000e-02, 3.4426930e-02, 0.0
2339, 2.3926312e-02, 3.4426930e-02, 0.0
2340, 2.4000000e-02, 3.4426930e-02, 0.0
2341, 2.4500000e-02, 3.4426930e-02, 0.0
2342, 2.5000000e-02, 3.4426930e-02, 0.0
2343, 2.5500000e-02, 3.4426930e-02, 0.0
2344, 2.5777404e-02, 3.4426930e-02, 0.0
2345, 2.6000000e-02, 3.4426930e-02, 0.0
2346, 2.6449813e-02, 3.4426930e-02, 0.0
2347, 2.6500000e-02, 3.4426930e-02, 0.0
2348, 2.7000000e-02, 3.4426930e-02, 0.0
2349, 2.7500000e-02, 3.4426930e-02, 0.0
2350, 2.8000000e-02, 3.4426930e-02, 0.0
2351, 2.8444995e-02, 3.4426930e-02, 0.0
2352, 2.8500000e-02, 3.4426930e-02, 0.0
2353, 2.9000000e-02, 3.4426930e-02, 0.0
2354, 2.9166998e-02, 3.4426930e-02, 0.0
2355, 2.9500000e-02, 3.4426930e-02, 0.0
2356, 3.0000000e-02, 3.4426930e-02, 0.0
2357, 3.0500000e-02, 3.4426930e-02, 0.0
2358, 3.1000000e-02, 3.4426930e-02, 0.0
2359, 3.1500000e-02, 3.4000000e-02, 0.0
2360, 3.1500000e-02, 3.4426930e-02, 0.0
2361, 3.1826348e-02, 3.4000000e-02, 0.0
2362, 3.1826348e-02, 3.4426930e-02, 0.0
2363, 8.0000000e-03, 3.4500000e-02, 0.0
2364, 7.5000000e-03, 3.4500000e-02, 0.0
2365, 8.5000000e-03, 3.4500000e-02, 0.0
2366, 9.0000000e-03, 3.4500000e-02, 0.0
2367, 9.5000000e-03, 3.4500000e-02, 0.0
2368, 1.0000000e-02, 3.4500000e-02, 0.0
2369, 1.0500000e-02, 3.4500000e-02, 0.0
2370, 1.1000000e-02, 3.4500000e-02, 0.0
2371, 1.1030671e-02, 3.4500000e-02, 0.0
2372, 1.1500000e-02, 3.4500000e-02, 0.0
2373, 1.2000000e-02, 3.4500000e-02, 0.0
2374, 1.2500000e-02, 3.4500000e-02, 0.0
2375, 1.3000000e-02, 3.4500000e-02, 0.0
2376, 1.3500000e-02, 3.4500000e-02, 0.0
2377, 1.4000000e-02, 3.4500000e-02, 0.0
2378, 1.4500000e-02, 3.4500000e-02, 0.0
2379, 1.4707561e-02, 3.4500000e-02, 0.0
2380, 1.4855500e-02, 3.4500000e-02, 0.0
2381, 1.5000000e-02, 3.4500000e-02, 0.0
2382, 1.5297833e-02, 3.4500000e-02, 0.0
2383, 1.5500000e-02, 3.4500000e-02, 0.0
2384, 1.6000000e-02, 3.4500000e-02, 0.0
2385, 1.6032328e-02, 3.4500000e-02, 0.0
2386, 1.6500000e-02, 3.4500000e-02, 0.0
2387, 1.7000000e-02, 3.4500000e-02, 0.0
2388, 1.7056755e-02, 3.4500000e-02, 0.0
2389, 1.7500000e-02, 3.4500000e-02, 0.0
2390, 1.8000000e-02, 3.4500000e-02, 0.0
2391, 1.8368883e-02, 3.4500000e-02, 0.0
2392, 1.8500000e-02, 3.4500000e-02, 0.0
2393, 1.9000000e-02, 3.4500000e-02, 0.0
2394, 1.9500000e-02, 3.4500000e-02, 0.0
2395, 1.9966484e-02, 3.4500000e-02, 0.0
2396, 2.0000000e-02, 3.4500000e-02, 0.0
2397, 2.0500000e-02, 3.4500000e-02, 0.0
2398, 2.1000000e-02, 3.4500000e-02, 0.0
2399, 2.1500000e-02, 3.4500000e-02, 0.0
2400, 2.1847326e-02, 3.4500000e-02, 0.0
2401, 2.2000000e-02, 3.4500000e-02, 0.0
2402, 2.2500000e-02, 3.4500000e-02, 0.0
2403, 2.2994457e-02, 3.4500000e-02, 0.0
2404, 2.3500000e-02, 3.4500000e-02, 0.0
2405, 2.3926312e-02, 3.4500000e-02, 0.0
2406, 2.4000000e-02, 3.4500000e-02, 0.0
2407, 2.4500000e-02, 3.4500000e-02, 0.0
2408, 2.5000000e-02, 3.4500000e-02, 0.0
2409, 2.5500000e-02, 3.4500000e-02, 0.0
2410, 2.5777404e-02, 3.4500000e-02, 0.0
2411, 2.6000000e-02, 3.4500000e-02, 0.0
2412, 2.6449813e-02, 3.4500000e-02, 0.0
2413, 2.6500000e-02, 3.4500000e-02, 0.0
2414, 2.7000000e-02, 3.4500000e-02, 0.0
2415, 2.7500000e-02, 3.4500000e-02, 0.0
2416, 2.8000000e-02, 3.4500000e-02, 0.0
2417, 2.8444995e-02, 3.4500000e-02, 0.0
2418, 2.8500000e-02, 3.4500000e-02, 0.0
2419, 2.9000000e-02, 3.4500000e-02, 0.0
2420, 2.9166998e-02, 3.4500000e-02, 0.0
2421, 2.9500000e-02, 3.4500000e-02, 0.0
2422, 3.0000000e-02, 3.4500000e-02, 0.0
2423, 3.0500000e-02, 3.4500000e-02, 0.0
2424, 3.1000000e-02, 3.4500000e-02, 0.0
2425, 3.1500000e-02, 3.4500000e-02, 0.0
2426, 3.1826348e-02, 3.4500000e-02, 0.0
2427, 3.2000000e-02, 3.4426930e-02, 0.0
2428, 3.2000000e-02, 3.4500000e-02, 0.0
2429, 3.2158503e-02, 3.4426930e-02, 0.0
2430, 3.2158503e-02, 3.4500000e-02, 0.0
2431, 8.0000000e-03, 3.5000000e-02, 0.0
2432, 7.5000000e-03, 3.5000000e-02, 0.0
2433, 8.5000000e-03, 3.5000000e-02, 0.0
2434, 9.0000000e-03, 3.5000000e-02, 0.0
2435, 9.5000000e-03, 3.5000000e-02, 0.0
2436, 1.0000000e-02, 3.5000000e-02, 0.0
2437, 1.0500000e-02, 3.5000000e-02, 0.0
2438, 1.1000000e-02, 3.5000000e-02, 0.0
2439, 1.1030671e-02, 3.5000000e-02, 0.0
2440, 1.1500000e-02, 3.5000000e-02, 0.0
2441, 1.2000000e-02, 3.5000000e-02, 0.0
2442, 1.2500000e-02, 3.5000000e-02, 0.0
2443, 1.3000000e-02, 3.5000000e-02, 0.0
2444, 1.3500000e-02, 3.5000000e-02, 0.0
2445, 1.4000000e-02, 3.5000000e-02, 0.0
2446, 1.4500000e-02, 3.5000000e-02, 0.0
2447, 1.4707561e-02, 3.5000000e-02, 0.0
2448, 1.4855500e-02, 3.5000000e-02, 0.0
2449, 1.5000000e-02, 3.5000000e-02, 0.0
2450, 1.5297833e-02, 3.5000000e-02, 0.0
2451, 1.5500000e-02, 3.5000000e-02, 0.0
2452, 1.6000000e-02, 3.5000000e-02, 0.0
2453, 1.6032328e-02, 3.5000000e-02, 0.0
2454, 1.6500000e-02, 3.5000000e-02, 0.0
2455, 1.7000000e-02, 3.5000000e-02, 0.0
2456, 1.7056755e-02, 3.5000000e-02, 0.0
2457, 1.7500000e-02, 3.5000000e-02, 0.0
2458, 1.8000000e-02, 3.5000000e-02, 0.0
2459, 1.8368883e-02, 3.5000000e-02, 0.0
2460, 1.8500000e-02, 3.5000000e-02, 0.0
2461, 1.9000000e-02, 3.5000000e-02, 0.0
2462, 1.9500000e-02, 3.5000000e-02, 0.0
2463, 1.9966484e-02, 3.5000000e-02, 0.0
2464, 2.0000000e-02, 3.5000000e-02, 0.0
2465, 2.0500000e-02, 3.5000000e-02, 0.0
2466, 2.1000000e-02, 3.5000000e-02, 0.0
2467, 2.1500000e-02, 3.5000000e-02, 0.0
2468, 2.1847326e-02, 3.5000000e-02, 0.0
2469, 2.2000000e-02, 3.5000000e-02, 0.0
2470, 2.2500000e-02, 3.5000000e-02, 0.0
2471, 2.2994457e-02, 3.5000000e-02, 0.0
2472, 2.3500000e-02, 3.5000000e-02, 0.0
2473, 2.3926312e-02, 3.5000000e-02, 0.0
2474, 2.4000000e-02, 3.5000000e-02, 0.0
2475, 2.4500000e-02, 3.5000000e-02, 0.0
2476, 2.5000000e-02, 3.5000000e-02, 0.0
2477, 2.5500000e-02, 3.5000000e-02, 0.0
2478, 2.5777404e-02, 3.5000000e-02, 0.0
2479, 2.6000000e-02, 3.5000000e-02, 0.0
2480, 2.6449813e-02, 3.5000000e-02, 0.0
2481, 2.6500000e-02, 3.5000000e-02, 0.0
2482, 2.7000000e-02, 3.5000000e-02, 0.0
2483, 2.7500000e-02, 3.5000000e-02, 0.0
2484, 2.8000000e-02, 3.5000000e-02, 0.0
2485, 2.8444995e-02, 3.5000000e-02, 0.0
2486, 2.8500000e-02, 3.5000000e-02, 0.0
2487, 2.9000000e-02, 3.5000000e-02, 0.0
2488, 2.9166998e-02, 3.5000000e-02, 0.0
2489, 2.9500000e-02, 3.5000000e-02, 0.0
2490, 3.0000000e-02, 3.5000000e-02, 0.0
2491, 3.0500000e-02, 3.5000000e-02, 0.0
2492, 3.1000000e-02, 3.5000000e-02, 0.0
2493, 3.1500000e-02, 3.5000000e-02, 0.0
2494, 3.1826348e-02, 3.5000000e-02, 0.0
2495, 3.2000000e-02, 3.5000000e-02, 0.0
2496, 3.2158503e-02, 3.5000000e-02, 0.0
2497, 3.2500000e-02, 3.4500000e-02, 0.0
2498, 3.2500000e-02, 3.5000000e-02, 0.0
2499, 3.3000000e-02, 3.4500000e-02, 0.0
2500, 3.3000000e-02, 3.5000000e-02, 0.0
2501, 8.0000000e-03, 3.5500000e-02, 0.0
2502, 7.5000000e-03, 3.5500000e-02, 0.0
2503, 8.5000000e-03, 3.5500000e-02, 0.0
2504, 9.0000000e-03, 3.5500000e-02, 0.0
2505, 9.5000000e-03, 3.5500000e-02, 0.0
2506, 1.0000000e-02, 3.5500000e-02, 0.0
2507, 1.0500000e-02, 3.5500000e-02, 0.0
2508, 1.1000000e-02, 3.5500000e-02, 0.0
2509, 1.1030671e-02, 3.5500000e-02, 0.0
2510, 1.1500000e-02, 3.5500000e-02, 0.0
2511, 1.2000000e-02, 3.5500000e-02, 0.0
2512, 1.2500000e-02, 3.5500000e-02, 0.0
2513, 1.3000000e-02, 3.5500000e-02, 0.0
2514, 1.3500000e-02, 3.5500000e-02, 0.0
2515, 1.4000000e-02, 3.5500000e-02, 0.0
2516, 1.4500000e-02, 3.5500000e-02, 0.0
2517, 1.4707561e-02, 3.5500000e-02, 0.0
2518, 1.4855500e-02, 3.5500000e-02, 0.0
2519, 1.5000000e-02, 3.5500000e-02, 0.0
2520, 1.5297833e-02, 3.5500000e-02, 0.0
2521, 1.5500000e-02, 3.5500000e-02, 0.0
2522, 1.6000000e-02, 3.5500000e-02, 0.0
2523, 1.6032328e-02, 3.5500000e-02, 0.0
2524, 1.6500000e-02, 3.5500000e-02, 0.0
2525, 1.7000000e-02, 3.5500000e-02, 0.0
2526, 1.7056755e-02, 3.5500000e-02, 0.0
2527, 1.7500000e-02, 3.5500000e-02, 0.0
2528, 1.8000000e-02, 3.5500000e-02, 0.0
2529, 1.8368883e-02, 3.5500000e-02, 0.0
2530, 1.8500000e-02, 3.5500000e-02, 0.0
2531, 1.9000000e-02, 3.5500000e-02, 0.0
2532, 1.9500000e-02, 3.5500000e-02, 0.0
2533, 1.9966484e-02, 3.5500000e-02, 0.0
2534, 2.0000000e-02, 3.5500000e-02, 0.0
2535, 2.0500000e-02, 3.5500000e-02, 0.0
2536, 2.1000000e-02, 3.5500000e-02, 0.0
2537, 2.1500000e-02, 3.5500000e-02, 0.0
2538, 2.1847326e-02, 3.5500000e-02, 0.0
2539, 2.2000000e-02, 3.5500000e-02, 0.0
2540, 2.2500000e-02, 3.5500000e-02, 0.0
2541, 2.2994457e-02, 3.5500000e-02, 0.0
2542, 2.3500000e-02, 3.5500000e-02, 0.0
2543, 2.3926312e-02, 3.5500000e-02, 0.0
2544, 2.4000000e-02, 3.5500000e-02, 0.0
2545, 2.4500000e-02, 3.5500000e-02, 0.0
2546, 2.5000000e-02, 3.5500000e-02, 0.0
2547, 2.5500000e-02, 3.5500000e-02, 0.0
2548, 2.5777404e-02, 3.5500000e-02, 0.0
2549, 2.6000000e-02, 3.5500000e-02, 0.0
2550, 2.6449813e-02, 3.5500000e-02, 0.0
2551, 2.6500000e-02, 3.5500000e-02, 0.0
2552, 2.7000000e-02, 3.5500000e-02, 0.0
2553, 2.7500000e-02, 3.5500000e-02, 0.0
2554, 2.8000000e-02, 3.5500000e-02, 0.0
2555, 2.8444995e-02, 3.5500000e-02, 0.0
2556, 2.8500000e-02, 3.5500000e-02, 0.0
2557, 2.9000000e-02, 3.5500000e-02, 0.0
2558, 2.9166998e-02, 3.5500000e-02, 0.0
2559, 2.9500000e-02, 3.5500000e-02, 0.0
2560, 3.0000000e-02, 3.5500000e-02, 0.0
2561, 3.0500000e-02, 3.5500000e-02, 0.0
2562, 3.1000000e-02, 3.5500000e-02, 0.0
2563, 3.1500000e-02, 3.5500000e-02, 0.0
2564, 3.1826348e-02, 3.5500000e-02, 0.0
2565, 3.2000000e-02, 3.5500000e-02, 0.0
2566, 3.2158503e-02, 3.5500000e-02, 0.0
2567, 3.2500000e-02, 3.5500000e-02, 0.0
2568, 3.3000000e-02, 3.5500000e-02, 0.0
2569, 3.3500000e-02, 3.5000000e-02, 0.0
2570, 3.3500000e-02, 3.5500000e-02, 0.0
2571, 8.0000000e-03, 3.6000000e-02, 0.0
2572, 7.5000000e-03, 3.6000000e-02, 0.0
2573, 8.5000000e-03, 3.6000000e-02, 0.0
2574, 9.0000000e-03, 3.6000000e-02, 0.0
2575, 9.5000000e-03, 3.6000000e-02, 0.0
2576, 1.0000000e-02, 3.6000000e-02, 0.0
2577, 1.0500000e-02, 3.6000000e-02, 0.0
2578, 1.1000000e-02, 3.6000000e-02, 0.0
2579, 1.1030671e-02, 3.6000000e-02, 0.0
2580, 1.1500000e-02, 3.6000000e-02, 0.0
2581, 1.2000000e-02, 3.6000000e-02, 0.0
2582, 1.2500000e-02, 3.6000000e-02, 0.0
2583, 1.3000000e-02, 3.6000000e-02, 0.0
2584, 1.3500000e-02, 3.6000000e-02, 0.0
2585, 1.4000000e-02, 3.6000000e-02, 0.0
2586, 1.4500000e-02, 3.6000000e-02, 0.0
2587, 1.4707561e-02, 3.6000000e-02, 0.0
2588, 1.4855500e-02, 3.6000000e-02, 0.0
2589, 1.5000000e-02, 3.6000000e-02, 0.0
2590, 1.5297833e-02, 3.6000000e-02, 0.0
2591, 1.5500000e-02, 3.6000000e-02, 0.0
2592, 1.6000000e-02, 3.6000000e-02, 0.0
2593, 1.6032328e-02, 3.6000000e-02, 0.0
2594, 1.6500000e-02, 3.6000000e-02, 0.0
2595, 1.7000000e-02, 3.6000000e-02, 0.0
2596, 1.7056755e-02, 3.6000000e-02, 0.0
2597, 1.7500000e-02, 3.6000000e-02, 0.0
2598, 1.8000000e-02, 3.6000000e-02, 0.0
2599, 1.8368883e-02, 3.6000000e-02, 0.0
2600, 1.8500000e-02, 3.6000000e-02, 0.0
2601, 1.9000000e-02, 3.6000000e-02, 0.0
2602, 1.9500000e-02, 3.6000000e-02, 0.0
2603, 1.9966484e-02, 3.6000000e-02, 0.0
2604, 2.0000000e-02, 3.6000000e-02, 0.0
2605, 2.0500000e-02, 3.6000000e-02, 0.0
2606, 2.1000000e-02, 3.6000000e-02, 0.0
2607, 2.1500000e-02, 3.6000000e-02, 0.0
2608, 2.1847326e-02, 3.6000000e-02, 0.0
2609, 2.2000000e-02, 3.6000000e-02, 0.0
2610, 2.2500000e-02, 3.6000000e-02, 0.0
2611, 2.2994457e-02, 3.6000000e-02, 0.0
2612, 2.3500000e-02, 3.6000000e-02, 0.0
2613, 2.3926312e-02, 3.6000000e-02, 0.0
2614, 2.4000000e-02, 3.6000000e-02, 0.0
2615, 2.4500000e-02, 3.6000000e-02, 0.0
2616, 2.5000000e-02, 3.6000000e-02, 0.0
2617, 2.5500000e-02, 3.6000000e-02, 0.0
2618, 2.5777404e-02, 3.6000000e-02, 0.0
2619, 2.6000000e-02, 3.6000000e-02, 0.0
2620, 2.6449813e-02, 3.6000000e-02, 0.0
2621, 2.6500000e-02, 3.6000000e-02, 0.0
2622, 2.7000000e-02, 3.6000000e-02, 0.0
2623, 2.7500000e-02, 3.6000000e-02, 0.0
2624, 2.8000000e-02, 3.6000000e-02, 0.0
2625, 2.8444995e-02, 3.6000000e-02, 0.0
2626, 2.8500000e-02, 3.6000000e-02, 0.0
2627, 2.9000000e-02, 3.6000000e-02, 0.0
2628, 2.9166998e-02, 3.6000000e-02, 0.0
2629, 2.9500000e-02, 3.6000000e-02, 0.0
2630, 3.0000000e-02, 3.6000000e-02, 0.0
2631, 3.0500000e-02, 3.6000000e-02, 0.0
2632, 3.1000000e-02, 3.6000000e-02, 0.0
2633, 3.1500000e-02, 3.6000000e-02, 0.0
2634, 3.1826348e-02, 3.6000000e-02, 0.0
2635, 3.2000000e-02, 3.6000000e-02, 0.0
2636, 3.2158503e-02, 3.6000000e-02, 0.0
2637, 3.2500000e-02, 3.6000000e-02, 0.0
2638, 3.3000000e-02, 3.6000000e-02, 0.0
2639, 3.3500000e-02, 3.6000000e-02, 0.0
2640, 3.4000000e-02, 3.5500000e-02, 0.0
2641, 3.4000000e-02, 3.6000000e-02, 0.0
2642, 3.4500000e-02, 3.5500000e-02, 0.0
2643, 3.4500000e-02, 3.6000000e-02, 0.0
2644, 8.0000000e-03, 3.6123523e-02, 0.0
2645, 7.5000000e-03, 3.6123523e-02, 0.0
2646, 8.5000000e-03, 3.6123523e-02, 0.0
2647, 9.0000000e-03, 3.6123523e-02, 0.0
2648, 9.5000000e-03, 3.6123523e-02, 0.0
2649, 1.0000000e-02, 3.6123523e-02, 0.0
2650, 1.0500000e-02, 3.6123523e-02, 0.0
2651, 1.1000000e-02, 3.6123523e-02, 0.0
2652, 1.1030671e-02, 3.6123523e-02, 0.0
2653, 1.1500000e-02, 3.6123523e-02, 0.0
2654, 1.2000000e-02, 3.6123523e-02, 0.0
2655, 1.2500000e-02, 3.6123523e-02, 0.0
2656, 1.3000000e-02, 3.6123523e-02, 0.0
2657, 1.3500000e-02, 3.6123523e-02, 0.0
2658, 1.4000000e-02, 3.6123523e-02, 0.0
2659, 1.4500000e-02, 3.6123523e-02, 0.0
2660, 1.4707561e-02, 3.6123523e-02, 0.0
2661, 1.4855500e-02, 3.6123523e-02, 0.0
2662, 1.5000000e-02, 3.6123523e-02, 0.0
2663, 1.5297833e-02, 3.6123523e-02, 0.0
2664, 1.5500000e-02, 3.6123523e-02, 0.0
2665, 1.6000000e-02, 3.6123523e-02, 0.0
2666, 1.6032328e-02, 3.6123523e-02, 0.0
2667, 1.6500000e-02, 3.6123523e-02, 0.0
2668, 1.7000000e-02, 3.6123523e-02, 0.0
2669, 1.7056755e-02, 3.6123523e-02, 0.0
2670, 1.7500000e-02, 3.6123523e-02, 0.0
2671, 1.8000000e-02, 3.6123523e-02, 0.0
2672, 1.8368883e-02, 3.6123523e-02, 0.0
2673, 1.8500000e-02, 3.6123523e-02, 0.0
2674, 1.9000000e-02, 3.6123523e-02, 0.0
2675, 1.9500000e-02, 3.6123523e-02, 0.0
2676, 1.9966484e-02, 3.6123523e-02, 0.0
2677, 2.0000000e-02, 3.6123523e-02, 0.0
2678, 2.0500000e-02, 3.6123523e-02, 0.0
2679, 2.1000000e-02, 3.6123523e-02, 0.0
2680, 2.1500000e-02, 3.6123523e-02, 0.0
2681, 2.1847326e-02, 3.6123523e-02, 0.0
2682, 2.2000000e-02, 3.6123523e-02, 0.0
2683, 2.2500000e-02, 3.6123523e-02, 0.0
2684, 2.2994457e-02, 3.6123523e-02, 0.0
2685, 2.3500000e-02, 3.6123523e-02, 0.0
2686, 2.3926312e-02, 3.6123523e-02, 0.0
2687, 2.4000000e-02, 3.6123523e-02, 0.0
2688, 2.4500000e-02, 3.6123523e-02, 0.0
2689, 2.5000000e-02, 3.6123523e-02, 0.0
2690, 2.5500000e-02, 3.6123523e-02, 0.0
2691, 2.5777404e-02, 3.6123523e-02, 0.0
2692, 2.6000000e-02, 3.6123523e-02, 0.0
2693, 2.6449813e-02, 3.6123523e-02, 0.0
2694, 2.6500000e-02, 3.6123523e-02, 0.0
2695, 2.7000000e-02, 3.6123523e-02, 0.0
2696, 2.7500000e-02, 3.6123523e-02, 0.0
2697, 2.8000000e-02, 3.6123523e-02, 0.0
2698, 2.8444995e-02, 3.6123523e-02, 0.0
2699, 2.8500000e-02, 3.6123523e-02, 0.0
2700, 2.9000000e-02, 3.6123523e-02, 0.0
2701, 2.9166998e-02, 3.6123523e-02, 0.0
2702, 2.9500000e-02, 3.6123523e-02, 0.0
2703, 3.0000000e-02, 3.6123523e-02, 0.0
2704, 3.0500000e-02, 3.6123523e-02, 0.0
2705, 3.1000000e-02, 3.6123523e-02, 0.0
2706, 3.1500000e-02, 3.6123523e-02, 0.0
2707, 3.1826348e-02, 3.6123523e-02, 0.0
2708, 3.2000000e-02, 3.6123523e-02, 0.0
2709, 3.2158503e-02, 3.6123523e-02, 0.0
2710, 3.2500000e-02, 3.6123523e-02, 0.0
2711, 3.3000000e-02, 3.6123523e-02, 0.0
2712, 3.3500000e-02, 3.6123523e-02, 0.0
2713, 3.4000000e-02, 3.6123523e-02, 0.0
2714, 3.4500000e-02, 3.6123523e-02, 0.0
2715, 3.5000000e-02, 3.6000000e-02, 0.0
2716, 3.5000000e-02, 3.6123523e-02, 0.0
2717, 3.5422098e-02, 3.6000000e-02, 0.0
2718, 3.5422098e-02, 3.6123523e-02, 0.0
2719, 8.0000000e-03, 3.6500000e-02, 0.0
2720, 7.5000000e-03, 3.6500000e-02, 0.0
2721, 8.5000000e-03, 3.6500000e-02, 0.0
2722, 9.0000000e-03, 3.6500000e-02, 0.0
2723, 9.5000000e-03, 3.6500000e-02, 0.0
2724, 1.0000000e-02, 3.6500000e-02, 0.0
2725, 1.0500000e-02, 3.6500000e-02, 0.0
2726, 1.1000000e-02, 3.6500000e-02, 0.0
2727, 1.1030671e-02, 3.6500000e-02, 0.0
2728, 1.1500000e-02, 3.6500000e-02, 0.0
2729, 1.2000000e-02, 3.6500000e-02, 0.0
2730, 1.2500000e-02, 3.6500000e-02, 0.0
2731, 1.3000000e-02, 3.6500000e-02, 0.0
2732, 1.3500000e-02, 3.6500000e-02, 0.0
2733, 1.4000000e-02, 3.6500000e-02, 0.0
2734, 1.4500000e-02, 3.6500000e-02, 0.0
2735, 1.4707561e-02, 3.6500000e-02, 0.0
2736, 1.4855500e-02, 3.6500000e-02, 0.0
2737, 1.5000000e-02, 3.6500000e-02, 0.0
2738, 1.5297833e-02, 3.6500000e-02, 0.0
2739, 1.5500000e-02, 3.6500000e-02, 0.0
2740, 1.6000000e-02, 3.6500000e-02, 0.0
2741, 1.6032328e-02, 3.6500000e-02, 0.0
2742, 1.6500000e-02, 3.6500000e-02, 0.0
2743, 1.7000000e-02, 3.6500000e-02, 0.0
2744, 1.7056755e-02, 3.6500000e-02, 0.0
2745, 1.7500000e-02, 3.6500000e-02, 0.0
2746, 1.8000000e-02, 3.6500000e-02, 0.0
2747, 1.8368883e-02, 3.6500000e-02, 0.0
2748, 1.8500000e-02, 3.6500000e-02, 0.0
2749, 1.9000000e-02, 3.6500000e-02, 0.0
2750, 1.9500000e-02, 3.6500000e-02, 0.0
2751, 1.9966484e-02, 3.6500000e-02, 0.0
2752, 2.0000000e-02, 3.6500000e-02, 0.0
2753, 2.0500000e-02, 3.6500000e-02, 0.0
2754, 2.1000000e-02, 3.6500000e-02, 0.0
2755, 2.1500000e-02, 3.6500000e-02, 0.0
2756, 2.1847326e-02, 3.6500000e-02, 0.0
2757, 2.2000000e-02, 3.6500000e-02, 0.0
2758, 2.2500000e-02, 3.6500000e-02, 0.0
2759, 2.2994457e-02, 3.6500000e-02, 0.0
2760, 2.3500000e-02, 3.6500000e-02, 0.0
2761, 2.3926312e-02, 3.6500000e-02, 0.0
2762, 2.4000000e-02, 3.6500000e-02, 0.0
2763, 2.4500000e-02, 3.6500000e-02, 0.0
2764, 2.5000000e-02, 3.6500000e-02, 0.0
2765, 2.5500000e-02, 3.6500000e-02, 0.0
2766, 2.5777404e-02, 3.6500000e-02, 0.0
2767, 2.6000000e-02, 3.6500000e-02, 0.0
2768, 2.6449813e-02, 3.6500000e-02, 0.0
2769, 2.6500000e-02, 3.6500000e-02, 0.0
2770, 2.7000000e-02, 3.6500000e-02, 0.0
2771, 2.7500000e-02, 3.6500000e-02, 0.0
2772, 2.8000000e-02, 3.6500000e-02, 0.0
2773, 2.8444995e-02, 3.6500000e-02, 0.0
2774, 2.8500000e-02, 3.6500000e-02, 0.0
2775, 2.9000000e-02, 3.6500000e-02, 0.0
2776, 2.9166998e-02, 3.6500000e-02, 0.0
2777, 2.9500000e-02, 3.6500000e-02, 0.0
2778, 3.0000000e-02, 3.6500000e-02, 0.0
2779, 3.0500000e-02, 3.6500000e-02, 0.0
2780, 3.1000000e-02, 3.6500000e-02, 0.0
2781, 3.1500000e-02, 3.6500000e-02, 0.0
2782, 3.1826348e-02, 3.6500000e-02, 0.0
2783, 3.2000000e-02, 3.6500000e-02, 0.0
2784, 3.2158503e-02, 3.6500000e-02, 0.0
2785, 3.2500000e-02, 3.6500000e-02, 0.0
2786, 3.3000000e-02, 3.6500000e-02, 0.0
2787, 3.3500000e-02, 3.6500000e-02, 0.0
2788, 3.4000000e-02, 3.6500000e-02, 0.0
2789, 3.4500000e-02, 3.6500000e-02, 0.0
2790, 3.5000000e-02, 3.6500000e-02, 0.0
2791, 3.5422098e-02, 3.6500000e-02, 0.0
2792, 3.5500000e-02, 3.6123523e-02, 0.0
2793, 3.5500000e-02, 3.6500000e-02, 0.0
2794, 3.5818722e-02, 3.6123523e-02, 0.0
2795, 3.5818722e-02, 3.6500000e-02, 0.0
2796, 8.0000000e-03, 3.7000000e-02, 0.0
2797, 7.5000000e-03, 3.7000000e-02, 0.0
2798, 8.5000000e-03, 3.7000000e-02, 0.0
2799, 9.0000000e-03, 3.7000000e-02, 0.0
2800, 9.5000000e-03, 3.7000000e-02, 0.0
2801, 1.0000000e-02, 3.7000000e-02, 0.0
2802, 1.0500000e-02, 3.7000000e-02, 0.0
2803, 1.1000000e-02, 3.7000000e-02, 0.0
2804, 1.1030671e-02, 3.7000000e-02, 0.0
2805, 1.1500000e-02, 3.7000000e-02, 0.0
2806, 1.2000000e-02, 3.7000000e-02, 0.0
2807, 1.2500000e-02, 3.7000000e-02, 0.0
2808, 1.3000000e-02, 3.7000000e-02, 0.0
2809, 1.3500000e-02, 3.7000000e-02, 0.0
2810, 1.4000000e-02, 3.7000000e-02, 0.0
2811, 1.4500000e-02, 3.7000000e-02, 0.0
2812, 1.4707561e-02, 3.7000000e-02, 0.0
2813, 1.4855500e-02, 3.7000000e-02, 0.0
2814, 1.5000000e-02, 3.7000000e-02, 0.0
2815, 1.5297833e-02, 3.7000000e-02, 0.0
2816, 1.5500000e-02, 3.7000000e-02, 0.0
2817, 1.6000000e-02, 3.7000000e-02, 0.0
2818, 1.6032328e-02, 3.7000000e-02, 0.0
2819, 1.6500000e-02, 3.7000000e-02, 0.0
2820, 1.7000000e-02, 3.7000000e-02, 0.0
2821, 1.7056755e-02, 3.7000000e-02, 0.0
2822, 1.7500000e-02, 3.7000000e-02, 0.0
2823, 1.8000000e-02, 3.7000000e-02, 0.0
2824, 1.8368883e-02, 3.7000000e-02, 0.0
2825, 1.8500000e-02, 3.7000000e-02, 0.0
2826, 1.9000000e-02, 3.7000000e-02, 0.0
2827, 1.9500000e-02, 3.7000000e-02, 0.0
2828, 1.9966484e-02, 3.7000000e-02, 0.0
2829, 2.0000000e-02, 3.7000000e-02, 0.0
2830, 2.0500000e-02, 3.7000000e-02, 0.0
2831, 2.1000000e-02, 3.7000000e-02, 0.0
2832, 2.1500000e-02, 3.7000000e-02, 0.0
2833, 2.1847326e-02, 3.7000000e-02, 0.0
2834, 2.2000000e-02, 3.7000000e-02, 0.0
2835, 2.2500000e-02, 3.7000000e-02, 0.0
2836, 2.2994457e-02, 3.7000000e-02, 0.0
2837, 2.3500000e-02, 3.7000000e-02, 0.0
2838, 2.3926312e-02, 3.7000000e-02, 0.0
2839, 2.4000000e-02, 3.7000000e-02, 0.0
2840, 2.4500000e-02, 3.7000000e-02, 0.0
2841, 2.5000000e-02, 3.7000000e-02, 0.0
2842, 2.5500000e-02, 3.7000000e-02, 0.0
2843, 2.5777404e-02, 3.7000000e-02, 0.0
2844, 2.6000000e-02, 3.7000000e-02, 0.0
2845, 2.6449813e-02, 3.7000000e-02, 0.0
2846, 2.6500000e-02, 3.7000000e-02, 0.0
2847, 2.7000000e-02, 3.7000000e-02, 0.0
2848, 2.7500000e-02, 3.7000000e-02, 0.0
2849, 2.8000000e-02, 3.7000000e-02, 0.0
2850, 2.8444995e-02, 3.7000000e-02, 0.0
2851, 2.8500000e-02, 3.7000000e-02, 0.0
2852, 2.9000000e-02, 3.7000000e-02, 0.0
2853, 2.9166998e-02, 3.7000000e-02, 0.0
2854, 2.9500000e-02, 3.7000000e-02, 0.0
2855, 3.0000000e-02, 3.7000000e-02, 0.0
2856, 3.0500000e-02, 3.7000000e-02, 0.0
2857, 3.1000000e-02, 3.7000000e-02, 0.0
2858, 3.1500000e-02, 3.7000000e-02, 0.0
2859, 3.1826348e-02, 3.7000000e-02, 0.0
2860, 3.2000000e-02, 3.7000000e-02, 0.0
2861, 3.2158503e-02, 3.7000000e-02, 0.0
2862, 3.2500000e-02, 3.7000000e-02, 0.0
2863, 3.3000000e-02, 3.7000000e-02, 0.0
2864, 3.3500000e-02, 3.7000000e-02, 0.0
2865, 3.4000000e-02, 3.7000000e-02, 0.0
2866, 3.4500000e-02, 3.7000000e-02, 0.0
2867, 3.5000000e-02, 3.7000000e-02, 0.0
2868, 3.5422098e-02, 3.7000000e-02, 0.0
2869, 3.5500000e-02, 3.7000000e-02, 0.0
2870, 3.5818722e-02, 3.7000000e-02, 0.0
2871, 3.6000000e-02, 3.6500000e-02, 0.0
2872, 3.6000000e-02, 3.7000000e-02, 0.0
2873, 3.6500000e-02, 3.6500000e-02, 0.0
2874, 3.6500000e-02, 3.7000000e-02, 0.0
2875, 3.7000000e-02, 3.6500000e-02, 0.0
2876, 3.7000000e-02, 3.7000000e-02, 0.0
2877, 8.0000000e-03, 3.7500000e-02, 0.0
2878, 7.5000000e-03, 3.7500000e-02, 0.0
2879, 8.5000000e-03, 3.7500000e-02, 0.0
2880, 9.0000000e-03, 3.7500000e-02, 0.0
2881, 9.5000000e-03, 3.7500000e-02, 0.0
2882, 1.0000000e-02, 3.7500000e-02, 0.0
2883, 1.0500000e-02, 3.7500000e-02, 0.0
2884, 1.1000000e-02, 3.7500000e-02, 0.0
2885, 1.1030671e-02, 3.7500000e-02, 0.0
2886, 1.1500000e-02, 3.7500000e-02, 0.0
2887, 1.2000000e-02, 3.7500000e-02, 0.0
2888, 1.2500000e-02, 3.7500000e-02, 0.0
2889, 1.3000000e-02, 3.7500000e-02, 0.0
2890, 1.3500000e-02, 3.7500000e-02, 0.0
2891, 1.4000000e-02, 3.7500000e-02, 0.0
2892, 1.4500000e-02, 3.7500000e-02, 0.0
2893, 1.4707561e-02, 3.7500000e-02, 0.0
2894, 1.4855500e-02, 3.7500000e-02, 0.0
2895, 1.5000000e-02, 3.7500000e-02, 0.0
2896, 1.5297833e-02, 3.7500000e-02, 0.0
2897, 1.5500000e-02, 3.7500000e-02, 0.0
2898, 1.6000000e-02, 3.7500000e-02, 0.0
2899, 1.6032328e-02, 3.7500000e-02, 0.0
2900, 1.6500000e-02, 3.7500000e-02, 0.0
2901, 1.7000000e-02, 3.7500000e-02, 0.0
2902, 1.7056755e-02, 3.7500000e-02, 0.0
2903, 1.7500000e-02, 3.7500000e-02, 0.0
2904, 1.8000000e-02, 3.7500000e-02, 0.0
2905, 1.8368883e-02, 3.7500000e-02, 0.0
2906, 1.8500000e-02, 3.7500000e-02, 0.0
2907, 1.9000000e-02, 3.7500000e-02, 0.0
2908, 1.9500000e-02, 3.7500000e-02, 0.0
2909, 1.9966484e-02, 3.7500000e-02, 0.0
2910, 2.0000000e-02, 3.7500000e-02, 0.0
2911, 2.0500000e-02, 3.7500000e-02, 0.0
2912, 2.1000000e-02, 3.7500000e-02, 0.0
2913, 2.1500000e-02, 3.7500000e-02, 0.0
2914, 2.1847326e-02, 3.7500000e-02, 0.0
2915, 2.2000000e-02, 3.7500000e-02, 0.0
2916, 2.2500000e-02, 3.7500000e-02, 0.0
2917, 2.2994457e-02, 3.7500000e-02, 0.0
2918, 2.3500000e-02, 3.7500000e-02, 0.0
2919, 2.3926312e-02, 3.7500000e-02, 0.0
2920, 2.4000000e-02, 3.7500000e-02, 0.0
2921, 2.4500000e-02, 3.7500000e-02, 0.0
2922, 2.5000000e-02, 3.7500000e-02, 0.0
2923, 2.5500000e-02, 3.7500000e-02, 0.0
2924, 2.5777404e-02, 3.7500000e-02, 0.0
2925, 2.6000000e-02, 3.7500000e-02, 0.0
2926, 2.6449813e-02, 3.7500000e-02, 0.0
2927, 2.6500000e-02, 3.7500000e-02, 0.0
2928, 2.7000000e-02, 3.7500000e-02, 0.0
2929, 2.7500000e-02, 3.7500000e-02, 0.0
2930, 2.8000000e-02, 3.7500000e-02, 0.0
2931, 2.8444995e-02, 3.7500000e-02, 0.0
2932, 2.8500000e-02, 3.7500000e-02, 0.0
2933, 2.9000000e-02, 3.7500000e-02, 0.0
2934, 2.9166998e-02, 3.7500000e-02, 0.0
2935, 2.9500000e-02, 3.7500000e-02, 0.0
2936, 3.0000000e-02, 3.7500000e-02, 0.0
2937, 3.0500000e-02, 3.7500000e-02, 0.0
2938, 3.1000000e-02, 3.7500000e-02, 0.0
2939, 3.1500000e-02, 3.7500000e-02, 0.0
2940, 3.1826348e-02, 3.7500000e-02, 0.0
2941, 3.2000000e-02, 3.7500000e-02, 0.0
2942, 3.2158503e-02, 3.7500000e-02, 0.0
2943, 3.2500000e-02, 3.7500000e-02, 0.0
2944, 3.3000000e-02, 3.7500000e-02, 0.0
2945, 3.3500000e-02, 3.7500000e-02, 0.0
2946, 3.4000000e-02, 3.7500000e-02, 0.0
2947, 3.4500000e-02, 3.7500000e-02, 0.0
2948, 3.5000000e-02, 3.7500000e-02, 0.0
2949, 3.5422098e-02, 3.7500000e-02, 0.0
2950, 3.5500000e-02, 3.7500000e-02, 0.0
2951, 3.5818722e-02, 3.7500000e-02, 0.0
2952, 3.6000000e-02, 3.7500000e-02, 0.0
2953, 3.6500000e-02, 3.7500000e-02, 0.0
2954, 3.7000000e-02, 3.7500000e-02, 0.0
2955, 3.7500000e-02, 3.7000000e-02, 0.0
2956, 3.7500000e-02, 3.7500000e-02, 0.0
2957, 3.8000000e-02, 3.7000000e-02, 0.0
2958, 3.8000000e-02, 3.7500000e-02, 0.0
2959, 8.0000000e-03, 3.7629405e-02, 0.0
2960, 7.5000000e-03, 3.7629405e-02, 0.0
2961, 8.5000000e-03, 3.7629405e-02, 0.0
2962, 9.0000000e-03, 3.7629405e-02, 0.0
2963, 9.5000000e-03, 3.7629405e-02, 0.0
2964, 1.0000000e-02, 3.7629405e-02, 0.0
2965, 1.0500000e-02, 3.7629405e-02, 0.0
2966, 1.1000000e-02, 3.7629405e-02, 0.0
2967, 1.1030671e-02, 3.7629405e-02, 0.0
2968, 1.1500000e-02, 3.7629405e-02, 0.0
2969, 1.2000000e-02, 3.7629405e-02, 0.0
2970, 1.2500000e-02, 3.7629405e-02, 0.0
2971, 1.3000000e-02, 3.7629405e-02, 0.0
2972, 1.3500000e-02, 3.7629405e-02, 0.0
2973, 1.4000000e-02, 3.7629405e-02, 0.0
2974, 1.4500000e-02, 3.7629405e-02, 0.0
2975, 1.4707561e-02, 3.7629405e-02, 0.0
2976, 1.4855500e-02, 3.7629405e-02, 0.0
2977, 1.5000000e-02, 3.7629405e-02, 0.0
2978, 1.5297833e-02, 3.7629405e-02, 0.0
2979, 1.5500000e-02, 3.7629405e-02, 0.0
2980, 1.6000000e-02, 3.7629405e-02, 0.0
2981, 1.6032328e-02, 3.7629405e-02, 0.0
2982, 1.6500000e-02, 3.7629405e-02, 0.0
2983, 1.7000000e-02, 3.7629405e-02, 0.0
2984, 1.7056755e-02, 3.7629405e-02, 0.0
2985, 1.7500000e-02, 3.7629405e-02, 0.0
2986, 1.8000000e-02, 3.7629405e-02, 0.0
2987, 1.8368883e-02, 3.7629405e-02, 0.0
2988, 1.8500000e-02, 3.7629405e-02, 0.0
2989, 1.9000000e-02, 3.7629405e-02, 0.0
2990, 1.9500000e-02, 3.7629405e-02, 0.0
2991, 1.9966484e-02, 3.7629405e-02, 0.0
2992, 2.0000000e-02, 3.7629405e-02, 0.0
2993, 2.0500000e-02, 3.7629405e-02, 0.0
2994, 2.1000000e-02, 3.7629405e-02, 0.0
2995, 2.1500000e-02, 3.7629405e-02, 0.0
2996, 2.1847326e-02, 3.7629405e-02, 0.0
2997, 2.2000000e-02, 3.7629405e-02, 0.0
2998, 2.2500000e-02, 3.7629405e-02, 0.0
2999, 2.2994457e-02, 3.7629405e-02, 0.0
3000, 2.3500000e-02, 3.7629405e-02, 0.0
3001, 2.3926312e-02, 3.7629405e-02, 0.0
3002, 2.4000000e-02, 3.7629405e-02, 0.0
3003, 2.4500000e-02, 3.7629405e-02, 0.0
3004, 2.5000000e-02, 3.7629405e-02, 0.0
3005, 2.5500000e-02, 3.7629405e-02, 0.0
3006, 2.5777404e-02, 3.7629405e-02, 0.0
3007, 2.6000000e-02, 3.7629405e-02, 0.0
3008, 2.6449813e-02, 3.7629405e-02, 0.0
3009, 2.6500000e-02, 3.7629405e-02, 0.0
3010, 2.7000000e-02, 3.7629405e-02, 0.0
3011, 2.7500000e-02, 3.7629405e-02, 0.0
3012, 2.8000000e-02, 3.7629405e-02, 0.0
3013, 2.8444995e-02, 3.7629405e-02, 0.0
3014, 2.8500000e-02, 3.7629405e-02, 0.0
3015, 2.9000000e-02, 3.7629405e-02, 0.0
3016, 2.9166998e-02, 3.7629405e-02, 0.0
3017, 2.9500000e-02, 3.7629405e-02, 0.0
3018, 3.0000000e-02, 3.7629405e-02, 0.0
3019, 3.0500000e-02, 3.7629405e-02, 0.0
3020, 3.1000000e-02, 3.7629405e-02, 0.0
3021, 3.1500000e-02, 3.7629405e-02, 0.0
3022, 3.1826348e-02, 3.7629405e-02, 0.0
3023, 3.2000000e-02, 3.7629405e-02, 0.0
3024, 3.2158503e-02, 3.7629405e-02, 0.0
3025, 3.2500000e-02, 3.7629405e-02, 0.0
3026, 3.3000000e-02, 3.7629405e-02, 0.0
3027, 3.3500000e-02, 3.7629405e-02, 0.0
3028, 3.4000000e-02, 3.7629405e-02, 0.0
3029, 3.4500000e-02, 3.7629405e-02, 0.0
3030, 3.5000000e-02, 3.7629405e-02, 0.0
3031, 3.5422098e-02, 3.7629405e-02, 0.0
3032, 3.5500000e-02, 3.7629405e-02, 0.0
3033, 3.5818722e-02, 3.7629405e-02, 0.0
3034, 3.6000000e-02, 3.7629405e-02, 0.0
3035, 3.6500000e-02, 3.7629405e-02, 0.0
3036, 3.7000000e-02, 3.7629405e-02, 0.0
3037, 3.7500000e-02, 3.7629405e-02, 0.0
3038, 3.8000000e-02, 3.7629405e-02, 0.0
3039, 3.8500000e-02, 3.7500000e-02, 0.0
3040, 3.8500000e-02, 3.7629405e-02, 0.0
3041, 3.8955553e-02, 3.7500000e-02, 0.0
3042, 3.8955553e-02, 3.7629405e-02, 0.0
3043, 8.0000000e-03, 3.8000000e-02, 0.0
3044, 7.5000000e-03, 3.8000000e-02, 0.0
3045, 8.5000000e-03, 3.8000000e-02, 0.0
3046, 9.0000000e-03, 3.8000000e-02, 0.0
3047, 9.5000000e-03, 3.8000000e-02, 0.0
3048, 1.0000000e-02, 3.8000000e-02, 0.0
3049, 1.0500000e-02, 3.8000000e-02, 0.0
3050, 1.1000000e-02, 3.8000000e-02, 0.0
3051, 1.1030671e-02, 3.8000000e-02, 0.0
3052, 1.1500000e-02, 3.8000000e-02, 0.0
3053, 1.2000000e-02, 3.8000000e-02, 0.0
3054, 1.2500000e-02, 3.8000000e-02, 0.0
3055, 1.3000000e-02, 3.8000000e-02, 0.0
3056, 1.3500000e-02, 3.8000000e-02, 0.0
3057, 1.4000000e-02, 3.8000000e-02, 0.0
3058, 1.4500000e-02, 3.8000000e-02, 0.0
3059, 1.4707561e-02, 3.8000000e-02, 0.0
3060, 1.4855500e-02, 3.8000000e-02, 0.0
3061, 1.5000000e-02, 3.8000000e-02, 0.0
3062, 1.5297833e-02, 3.8000000e-02, 0.0
3063, 1.5500000e-02, 3.8000000e-02, 0.0
3064, 1.6000000e-02, 3.8000000e-02, 0.0
3065, 1.6032328e-02, 3.8000000e-02, 0.0
3066, 1.6500000e-02, 3.8000000e-02, 0.0
3067, 1.7000000e-02, 3.8000000e-02, 0.0
3068, 1.7056755e-02, 3.8000000e-02, 0.0
3069, 1.7500000e-02, 3.8000000e-02, 0.0
3070, 1.8000000e-02, 3.8000000e-02, 0.0
3071, 1.8368883e-02, 3.8000000e-02, 0.0
3072, 1.8500000e-02, 3.8000000e-02, 0.0
3073, 1.9000000e-02, 3.8000000e-02, 0.0
3074, 1.9500000e-02, 3.8000000e-02, 0.0
3075, 1.9966484e-02, 3.8000000e-02, 0.0
3076, 2.0000000e-02, 3.8000000e-02, 0.0
3077, 2.0500000e-02, 3.8000000e-02, 0.0
3078, 2.1000000e-02, 3.8000000e-02, 0.0
3079, 2.1500000e-02, 3.8000000e-02, 0.0
3080, 2.1847326e-02, 3.8000000e-02, 0.0
3081, 2.2000000e-02, 3.8000000e-02, 0.0
3082, 2.2500000e-02, 3.8000000e-02, 0.0
3083, 2.2994457e-02, 3.8000000e-02, 0.0
3084, 2.3500000e-02, 3.8000000e-02, 0.0
3085, 2.3926312e-02, 3.8000000e-02, 0.0
3086, 2.4000000e-02, 3.8000000e-02, 0.0
3087, 2.4500000e-02, 3.8000000e-02, 0.0
3088, 2.5000000e-02, 3.8000000e-02, 0.0
3089, 2.5500000e-02, 3.8000000e-02, 0.0
3090, 2.5777404e-02, 3.8000000e-02, 0.0
3091, 2.6000000e-02, 3.8000000e-02, 0.0
3092, 2.6449813e-02, 3.8000000e-02, 0.0
3093, 2.6500000e-02, 3.8000000e-02, 0.0
3094, 2.7000000e-02, 3.8000000e-02, 0.0
3095, 2.7500000e-02, 3.8000000e-02, 0.0
3096, 2.8000000e-02, 3.8000000e-02, 0.0
3097, 2.8444995e-02, 3.8000000e-02, 0.0
3098, 2.8500000e-02, 3.8000000e-02, 0.0
3099, 2.9000000e-02, 3.8000000e-02, 0.0
3100, 2.9166998e-02, 3.8000000e-02, 0.0
3101, 2.9500000e-02, 3.8000000e-02, 0.0
3102, 3.0000000e-02, 3.8000000e-02, 0.0
3103, 3.0500000e-02, 3.8000000e-02, 0.0
3104, 3.1000000e-02, 3.8000000e-02, 0.0
3105, 3.1500000e-02, 3.8000000e-02, 0.0
3106, 3.1826348e-02, 3.8000000e-02, 0.0
3107, 3.2000000e-02, 3.8000000e-02, 0.0
3108, 3.2158503e-02, 3.8000000e-02, 0.0
3109, 3.2500000e-02, 3.8000000e-02, 0.0
3110, 3.3000000e-02, 3.8000000e-02, 0.0
3111, 3.3500000e-02, 3.8000000e-02, 0.0
3112, 3.4000000e-02, 3.8000000e-02, 0.0
3113, 3.4500000e-02, 3.8000000e-02, 0.0
3114, 3.5000000e-02, 3.8000000e-02, 0.0
3115, 3.5422098e-02, 3.8000000e-02, 0.0
3116, 3.5500000e-02, 3.8000000e-02, 0.0
3117, 3.5818722e-02, 3.8000000e-02, 0.0
3118, 3.6000000e-02, 3.8000000e-02, 0.0
3119, 3.6500000e-02, 3.8000000e-02, 0.0
3120, 3.7000000e-02, 3.8000000e-02, 0.0
3121, 3.7500000e-02, 3.8000000e-02, 0.0
3122, 3.8000000e-02, 3.8000000e-02, 0.0
3123, 3.8500000e-02, 3.8000000e-02, 0.0
3124, 3.8955553e-02, 3.8000000e-02, 0.0
3125, 3.9000000e-02, 3.7629405e-02, 0.0
3126, 3.9000000e-02, 3.8000000e-02, 0.0
3127, 3.9500000e-02, 3.7629405e-02, 0.0
3128, 3.9500000e-02, 3.8000000e-02, 0.0
3129, 8.0000000e-03, 3.8500000e-02, 0.0
3130, 7.5000000e-03, 3.8500000e-02, 0.0
3131, 8.5000000e-03, 3.8500000e-02, 0.0
3132, 9.0000000e-03, 3.8500000e-02, 0.0
3133, 9.5000000e-03, 3.8500000e-02, 0.0
3134, 1.0000000e-02, 3.8500000e-02, 0.0
3135, 1.0500000e-02, 3.8500000e-02, 0.0
3136, 1.1000000e-02, 3.8500000e-02, 0.0
3137, 1.1030671e-02, 3.8500000e-02, 0.0
3138, 1.1500000e-02, 3.8500000e-02, 0.0
3139, 1.2000000e-02, 3.8500000e-02, 0.0
3140, 1.2500000e-02, 3.8500000e-02, 0.0
3141, 1.3000000e-02, 3.8500000e-02, 0.0
3142, 1.3500000e-02, 3.8500000e-02, 0.0
3143, 1.4000000e-02, 3.8500000e-02, 0.0
3144, 1.4500000e-02, 3.8500000e-02, 0.0
3145, 1.4707561e-02, 3.8500000e-02, 0.0
3146, 1.4855500e-02, 3.8500000e-02, 0.0
3147, 1.5000000e-02, 3.8500000e-02, 0.0
3148, 1.5297833e-02, 3.8500000e-02, 0.0
3149, 1.5500000e-02, 3.8500000e-02, 0.0
3150, 1.6000000e-02, 3.8500000e-02, 0.0
3151, 1.6032328e-02, 3.8500000e-02, 0.0
3152, 1.6500000e-02, 3.8500000e-02, 0.0
3153, 1.7000000e-02, 3.8500000e-02, 0.0
3154, 1.7056755e-02, 3.8500000e-02, 0.0
3155, 1.7500000e-02, 3.8500000e-02, 0.0
3156, 1.8000000e-02, 3.8500000e-02, 0.0
3157, 1.8368883e-02, 3.8500000e-02, 0.0
3158, 1.8500000e-02, 3.8500000e-02, 0.0
3159, 1.9000000e-02, 3.8500000e-02, 0.0
3160, 1.9500000e-02, 3.8500000e-02, 0.0
3161, 1.9966484e-02, 3.8500000e-02, 0.0
3162, 2.0000000e-02, 3.8500000e-02, 0.0
3163, 2.0500000e-02, 3.8500000e-02, 0.0
3164, 2.1000000e-02, 3.8500000e-02, 0.0
3165, 2.1500000e-02, 3.8500000e-02, 0.0
3166, 2.1847326e-02, 3.8500000e-02, 0.0
3167, 2.2000000e-02, 3.8500000e-02, 0.0
3168, 2.2500000e-02, 3.8500000e-02, 0.0
3169, 2.2994457e-02, 3.8500000e-02, 0.0
3170, 2.3500000e-02, 3.8500000e-02, 0.0
3171, 2.3926312e-02, 3.8500000e-02, 0.0
3172, 2.4000000e-02, 3.8500000e-02, 0.0
3173, 2.4500000e-02, 3.8500000e-02, 0.0
3174, 2.5000000e-02, 3.8500000e-02, 0.0
3175, 2.5500000e-02, 3.8500000e-02, 0.0
3176, 2.5777404e-02, 3.8500000e-02, 0.0
3177, 2.6000000e-02, 3.8500000e-02, 0.0
3178, 2.6449813e-02, 3.8500000e-02, 0.0
3179, 2.6500000e-02, 3.8500000e-02, 0.0
3180, 2.7000000e-02, 3.8500000e-02, 0.0
3181, 2.7500000e-02, 3.8500000e-02, 0.0
3182, 2.8000000e-02, 3.8500000e-02, 0.0
3183, 2.8444995e-02, 3.8500000e-02, 0.0
3184, 2.8500000e-02, 3.8500000e-02, 0.0
3185, 2.9000000e-02, 3.8500000e-02, 0.0
3186, 2.9166998e-02, 3.8500000e-02, 0.0
3187, 2.9500000e-02, 3.8500000e-02, 0.0
3188, 3.0000000e-02, 3.8500000e-02, 0.0
3189, 3.0500000e-02, 3.8500000e-02, 0.0
3190, 3.1000000e-02, 3.8500000e-02, 0.0
3191, 3.1500000e-02, 3.8500000e-02, 0.0
3192, 3.1826348e-02, 3.8500000e-02, 0.0
3193, 3.2000000e-02, 3.8500000e-02, 0.0
3194, 3.2158503e-02, 3.8500000e-02, 0.0
3195, 3.2500000e-02, 3.8500000e-02, 0.0
3196, 3.3000000e-02, 3.8500000e-02, 0.0
3197, 3.3500000e-02, 3.8500000e-02, 0.0
3198, 3.4000000e-02, 3.8500000e-02, 0.0
3199, 3.4500000e-02, 3.8500000e-02, 0.0
3200, 3.5000000e-02, 3.8500000e-02, 0.0
3201, 3.5422098e-02, 3.8500000e-02, 0.0
3202, 3.5500000e-02, 3.8500000e-02, 0.0
3203, 3.5818722e-02, 3.8500000e-02, 0.0
3204, 3.6000000e-02, 3.8500000e-02, 0.0
3205, 3.6500000e-02, 3.8500000e-02, 0.0
3206, 3.7000000e-02, 3.8500000e-02, 0.0
3207, 3.7500000e-02, 3.8500000e-02, 0.0
3208, 3.8000000e-02, 3.8500000e-02, 0.0
3209, 3.8500000e-02, 3.8500000e-02, 0.0
3210, 3.8955553e-02, 3.8500000e-02, 0.0
3211, 3.9000000e-02, 3.8500000e-02, 0.0
3212, 3.9500000e-02, 3.8500000e-02, 0.0
3213, 4.0000000e-02, 3.8000000e-02, 0.0
3214, 4.0000000e-02, 3.8500000e-02, 0.0
3215, 4.0319382e-02, 3.8000000e-02, 0.0
3216, 4.0319382e-02, 3.8500000e-02, 0.0
3217, 4.0500000e-02, 3.8000000e-02, 0.0
3218, 4.0500000e-02, 3.8500000e-02, 0.0
3219, 4.1000000e-02, 3.8000000e-02, 0.0
3220, 4.1000000e-02, 3.8500000e-02, 0.0
3221, 8.0000000e-03, 3.8933635e-02, 0.0
3222, 7.5000000e-03, 3.8933635e-02, 0.0
3223, 8.5000000e-03, 3.8933635e-02, 0.0
3224, 9.0000000e-03, 3.8933635e-02, 0.0
3225, 9.5000000e-03, 3.8933635e-02, 0.0
3226, 1.0000000e-02, 3.8933635e-02, 0.0
3227, 1.0500000e-02, 3.8933635e-02, 0.0
3228, 1.1000000e-02, 3.8933635e-02, 0.0
3229, 1.1030671e-02, 3.8933635e-02, 0.0
3230, 1.1500000e-02, 3.8933635e-02, 0.0
3231, 1.2000000e-02, 3.8933635e-02, 0.0
3232, 1.2500000e-02, 3.8933635e-02, 0.0
3233, 1.3000000e-02, 3.8933635e-02, 0.0
3234, 1.3500000e-02, 3.8933635e-02, 0.0
3235, 1.4000000e-02, 3.8933635e-02, 0.0
3236, 1.4500000e-02, 3.8933635e-02, 0.0
3237, 1.4707561e-02, 3.8933635e-02, 0.0
3238, 1.4855500e-02, 3.8933635e-02, 0.0
3239, 1.5000000e-02, 3.8933635e-02, 0.0
3240, 1.5297833e-02, 3.8933635e-02, 0.0
3241, 1.5500000e-02, 3.8933635e-02, 0.0
3242, 1.6000000e-02, 3.8933635e-02, 0.0
3243, 1.6032328e-02, 3.8933635e-02, 0.0
3244, 1.6500000e-02, 3.8933635e-02, 0.0
3245, 1.7000000e-02, 3.8933635e-02, 0.0
3246, 1.7056755e-02, 3.8933635e-02, 0.0
3247, 1.7500000e-02, 3.8933635e-02, 0.0
3248, 1.8000000e-02, 3.8933635e-02, 0.0
3249, 1.8368883e-02, 3.8933635e-02, 0.0
3250, 1.8500000e-02, 3.8933635e-02, 0.0
3251, 1.9000000e-02, 3.8933635e-02, 0.0
3252, 1.9500000e-02, 3.8933635e-02, 0.0
3253, 1.9966484e-02, 3.8933635e-02, 0.0
3254, 2.0000000e-02, 3.8933635e-02, 0.0
3255, 2.0500000e-02, 3.8933635e-02, 0.0
3256, 2.1000000e-02, 3.8933635e-02, 0.0
3257, 2.1500000e-02, 3.8933635e-02, 0.0
3258, 2.1847326e-02, 3.8933635e-02, 0.0
3259, 2.2000000e-02, 3.8933635e-02, 0.0
3260, 2.2500000e-02, 3.8933635e-02, 0.0
3261, 2.2994457e-02, 3.8933635e-02, 0.0
3262, 2.3500000e-02, 3.8933635e-02, 0.0
3263, 2.3926312e-02, 3.8933635e-02, 0.0
3264, 2.4000000e-02, 3.8933635e-02, 0.0
3265, 2.4500000e-02, 3.8933635e-02, 0.0
3266, 2.5000000e-02, 3.8933635e-02, 0.0
3267, 2.5500000e-02, 3.8933635e-02, 0.0
3268, 2.5777404e-02, 3.8933635e-02, 0.0
3269, 2.6000000e-02, 3.8933635e-02, 0.0
3270, 2.6449813e-02, 3.8933635e-02, 0.0
3271, 2.6500000e-02, 3.8933635e-02, 0.0
3272, 2.7000000e-02, 3.8933635e-02, 0.0
3273, 2.7500000e-02, 3.8933635e-02, 0.0
3274, 2.8000000e-02, 3.8933635e-02, 0.0
3275, 2.8444995e-02, 3.8933635e-02, 0.0
3276, 2.8500000e-02, 3.8933635e-02, 0.0
3277, 2.9000000e-02, 3.8933635e-02, 0.0
3278, 2.9166998e-02, 3.8933635e-02, 0.0
3279, 2.9500000e-02, 3.8933635e-02, 0.0
3280, 3.0000000e-02, 3.8933635e-02, 0.0
3281, 3.0500000e-02, 3.8933635e-02, 0.0
3282, 3.1000000e-02, 3.8933635e-02, 0.0
3283, 3.1500000e-02, 3.8933635e-02, 0.0
3284, 3.1826348e-02, 3.8933635e-02, 0.0
3285, 3.2000000e-02, 3.8933635e-02, 0.0
3286, 3.2158503e-02, 3.8933635e-02, 0.0
3287, 3.2500000e-02, 3.8933635e-02, 0.0
3288, 3.3000000e-02, 3.8933635e-02, 0.0
3289, 3.3500000e-02, 3.8933635e-02, 0.0
3290, 3.4000000e-02, 3.8933635e-02, 0.0
3291, 3.4500000e-02, 3.8933635e-02, 0.0
3292, 3.5000000e-02, 3.8933635e-02, 0.0
3293, 3.5422098e-02, 3.8933635e-02, 0.0
3294, 3.5500000e-02, 3.8933635e-02, 0.0
3295, 3.5818722e-02, 3.8933635e-02, 0.0
3296, 3.6000000e-02, 3.8933635e-02, 0.0
3297, 3.6500000e-02, 3.8933635e-02, 0.0
3298, 3.7000000e-02, 3.8933635e-02, 0.0
3299, 3.7500000e-02, 3.8933635e-02, 0.0
3300, 3.8000000e-02, 3.8933635e-02, 0.0
3301, 3.8500000e-02, 3.8933635e-02, 0.0
3302, 3.8955553e-02, 3.8933635e-02, 0.0
3303, 3.9000000e-02, 3.8933635e-02, 0.0
3304, 3.9500000e-02, 3.8933635e-02, 0.0
3305, 4.0000000e-02, 3.8933635e-02, 0.0
3306, 4.0319382e-02, 3.8933635e-02, 0.0
3307, 4.0500000e-02, 3.8933635e-02, 0.0
3308, 4.1000000e-02, 3.8933635e-02, 0.0
3309, 4.1500000e-02, 3.8500000e-02, 0.0
3310, 4.1500000e-02, 3.8933635e-02, 0.0
3311, 4.2000000e-02, 3.8500000e-02, 0.0
3312, 4.2000000e-02, 3.8933635e-02, 0.0
3313, 8.0000000e-03, 3.9000000e-02, 0.0
3314, 7.5000000e-03, 3.9000000e-02, 0.0
3315, 8.5000000e-03, 3.9000000e-02, 0.0
3316, 9.0000000e-03, 3.9000000e-02, 0.0
3317, 9.5000000e-03, 3.9000000e-02, 0.0
3318, 1.0000000e-02, 3.9000000e-02, 0.0
3319, 1.0500000e-02, 3.9000000e-02, 0.0
3320, 1.1000000e-02, 3.9000000e-02, 0.0
3321, 1.1030671e-02, 3.9000000e-02, 0.0
3322, 1.1500000e-02, 3.9000000e-02, 0.0
3323, 1.2000000e-02, 3.9000000e-02, 0.0
3324, 1.2500000e-02, 3.9000000e-02, 0.0
3325, 1.3000000e-02, 3.9000000e-02, 0.0
3326, 1.3500000e-02, 3.9000000e-02, 0.0
3327, 1.4000000e-02, 3.9000000e-02, 0.0
3328, 1.4500000e-02, 3.9000000e-02, 0.0
3329, 1.4707561e-02, 3.9000000e-02, 0.0
3330, 1.4855500e-02, 3.9000000e-02, 0.0
3331, 1.5000000e-02, 3.9000000e-02, 0.0
3332, 1.5297833e-02, 3.9000000e-02, 0.0
3333, 1.5500000e-02, 3.9000000e-02, 0.0
3334, 1.6000000e-02, 3.9000000e-02, 0.0
3335, 1.6032328e-02, 3.9000000e-02, 0.0
3336, 1.6500000e-02, 3.9000000e-02, 0.0
3337, 1.7000000e-02, 3.9000000e-02, 0.0
3338, 1.7056755e-02, 3.9000000e-02, 0.0
3339, 1.7500000e-02, 3.9000000e-02, 0.0
3340, 1.8000000e-02, 3.9000000e-02, 0.0
3341, 1.8368883e-02, 3.9000000e-02, 0.0
3342, 1.8500000e-02, 3.9000000e-02, 0.0
3343, 1.9000000e-02, 3.9000000e-02, 0.0
3344, 1.9500000e-02, 3.9000000e-02, 0.0
3345, 1.9966484e-02, 3.9000000e-02, 0.0
3346, 2.0000000e-02, 3.9000000e-02, 0.0
3347, 2.0500000e-02, 3.9000000e-02, 0.0
3348, 2.1000000e-02, 3.9000000e-02, 0.0
3349, 2.1500000e-02, 3.9000000e-02, 0.0
3350, 2.1847326e-02, 3.9000000e-02, 0.0
3351, 2.2000000e-02, 3.9000000e-02, 0.0
3352, 2.2500000e-02, 3.9000000e-02, 0.0
3353, 2.2994457e-02, 3.9000000e-02, 0.0
3354, 2.3500000e-02, 3.9000000e-02, 0.0
3355, 2.3926312e-02, 3.9000000e-02, 0.0
3356, 2.4000000e-02, 3.9000000e-02, 0.0
3357, 2.4500000e-02, 3.9000000e-02, 0.0
3358, 2.5000000e-02, 3.9000000e-02, 0.0
3359, 2.5500000e-02, 3.9000000e-02, 0.0
3360, 2.5777404e-02, 3.9000000e-02, 0.0
3361, 2.6000000e-02, 3.9000000e-02, 0.0
3362, 2.6449813e-02, 3.9000000e-02, 0.0
3363, 2.6500000e-02, 3.9000000e-02, 0.0
3364, 2.7000000e-02, 3.9000000e-02, 0.0
3365, 2.7500000e-02, 3.9000000e-02, 0.0
3366, 2.8000000e-02, 3.9000000e-02, 0.0
3367, 2.8444995e-02, 3.9000000e-02, 0.0
3368, 2.8500000e-02, 3.9000000e-02, 0.0
3369, 2.9000000e-02, 3.9000000e-02, 0.0
3370, 2.9166998e-02, 3.9000000e-02, 0.0
3371, 2.9500000e-02, 3.9000000e-02, 0.0
3372, 3.0000000e-02, 3.9000000e-02, 0.0
3373, 3.0500000e-02, 3.9000000e-02, 0.0
3374, 3.1000000e-02, 3.9000000e-02, 0.0
3375, 3.1500000e-02, 3.9000000e-02, 0.0
3376, 3.1826348e-02, 3.9000000e-02, 0.0
3377, 3.2000000e-02, 3.9000000e-02, 0.0
3378, 3.2158503e-02, 3.9000000e-02, 0.0
3379, 3.2500000e-02, 3.9000000e-02, 0.0
3380, 3.3000000e-02, 3.9000000e-02, 0.0
3381, 3.3500000e-02, 3.9000000e-02, 0.0
3382, 3.4000000e-02, 3.9000000e-02, 0.0
3383, 3.4500000e-02, 3.9000000e-02, 0.0
3384, 3.5000000e-02, 3.9000000e-02, 0.0
3385, 3.5422098e-02, 3.9000000e-02, 0.0
3386, 3.5500000e-02, 3.9000000e-02, 0.0
3387, 3.5818722e-02, 3.9000000e-02, 0.0
3388, 3.6000000e-02, 3.9000000e-02, 0.0
3389, 3.6500000e-02, 3.9000000e-02, 0.0
3390, 3.7000000e-02, 3.9000000e-02, 0.0
3391, 3.7500000e-02, 3.9000000e-02, 0.0
3392, 3.8000000e-02, 3.9000000e-02, 0.0
3393, 3.8500000e-02, 3.9000000e-02, 0.0
3394, 3.8955553e-02, 3.9000000e-02, 0.0
3395, 3.9000000e-02, 3.9000000e-02, 0.0
3396, 3.9500000e-02, 3.9000000e-02, 0.0
3397, 4.0000000e-02, 3.9000000e-02, 0.0
3398, 4.0319382e-02, 3.9000000e-02, 0.0
3399, 4.0500000e-02, 3.9000000e-02, 0.0
3400, 4.1000000e-02, 3.9000000e-02, 0.0
3401, 4.1500000e-02, 3.9000000e-02, 0.0
3402, 4.2000000e-02, 3.9000000e-02, 0.0
3403, 4.2500000e-02, 3.8933635e-02, 0.0
3404, 4.2500000e-02, 3.9000000e-02, 0.0
3405, 4.2756638e-02, 3.8933635e-02, 0.0
3406, 4.2756638e-02, 3.9000000e-02, 0.0
3407, 4.3000000e-02, 3.8933635e-02, 0.0
3408, 4.3000000e-02, 3.9000000e-02, 0.0
3409, 8.0000000e-03, 3.9500000e-02, 0.0
3410, 7.5000000e-03, 3.9500000e-02, 0.0
3411, 8.5000000e-03, 3.9500000e-02, 0.0
3412, 9.0000000e-03, 3.9500000e-02, 0.0
3413, 9.5000000e-03, 3.9500000e-02, 0.0
3414, 1.0000000e-02, 3.9500000e-02, 0.0
3415, 1.0500000e-02, 3.9500000e-02, 0.0
3416, 1.1000000e-02, 3.9500000e-02, 0.0
3417, 1.1030671e-02, 3.9500000e-02, 0.0
3418, 1.1500000e-02, 3.9500000e-02, 0.0
3419, 1.2000000e-02, 3.9500000e-02, 0.0
3420, 1.2500000e-02, 3.9500000e-02, 0.0
3421, 1.3000000e-02, 3.9500000e-02, 0.0
3422, 1.3500000e-02, 3.9500000e-02, 0.0
3423, 1.4000000e-02, 3.9500000e-02, 0.0
3424, 1.4500000e-02, 3.9500000e-02, 0.0
3425, 1.4707561e-02, 3.9500000e-02, 0.0
3426, 1.4855500e-02, 3.9500000e-02, 0.0
3427, 1.5000000e-02, 3.9500000e-02, 0.0
3428, 1.5297833e-02, 3.9500000e-02, 0.0
3429, 1.5500000e-02, 3.9500000e-02, 0.0
3430, 1.6000000e-02, 3.9500000e-02, 0.0
3431, 1.6032328e-02, 3.9500000e-02, 0.0
3432, 1.6500000e-02, 3.9500000e-02, 0.0
3433, 1.7000000e-02, 3.9500000e-02, 0.0
3434, 1.7056755e-02, 3.9500000e-02, 0.0
3435, 1.7500000e-02, 3.9500000e-02, 0.0
3436, 1.8000000e-02, 3.9500000e-02, 0.0
3437, 1.8368883e-02, 3.9500000e-02, 0.0
3438, 1.8500000e-02, 3.9500000e-02, 0.0
3439, 1.9000000e-02, 3.9500000e-02, 0.0
3440, 1.9500000e-02, 3.9500000e-02, 0.0
3441, 1.9966484e-02, 3.9500000e-02, 0.0
3442, 2.0000000e-02, 3.9500000e-02, 0.0
3443, 2.0500000e-02, 3.9500000e-02, 0.0
3444, 2.1000000e-02, 3.9500000e-02, 0.0
3445, 2.1500000e-02, 3.9500000e-02, 0.0
3446, 2.1847326e-02, 3.9500000e-02, 0.0
3447, 2.2000000e-02, 3.9500000e-02, 0.0
3448, 2.2500000e-02, 3.9500000e-02, 0.0
3449, 2.2994457e-02, 3.9500000e-02, 0.0
3450, 2.3500000e-02, 3.9500000e-02, 0.0
3451, 2.3926312e-02, 3.9500000e-02, 0.0
3452, 2.4000000e-02, 3.9500000e-02, 0.0
3453, 2.4500000e-02, 3.9500000e-02, 0.0
3454, 2.5000000e-02, 3.9500000e-02, 0.0
3455, 2.5500000e-02, 3.9500000e-02, 0.0
3456, 2.5777404e-02, 3.9500000e-02, 0.0
3457, 2.6000000e-02, 3.9500000e-02, 0.0
3458, 2.6449813e-02, 3.9500000e-02, 0.0
3459, 2.6500000e-02, 3.9500000e-02, 0.0
3460, 2.7000000e-02, 3.9500000e-02, 0.0
3461, 2.7500000e-02, 3.9500000e-02, 0.0
3462, 2.8000000e-02, 3.9500000e-02, 0.0
3463, 2.8444995e-02, 3.9500000e-02, 0.0
3464, 2.8500000e-02, 3.9500000e-02, 0.0
3465, 2.9000000e-02, 3.9500000e-02, 0.0
3466, 2.9166998e-02, 3.9500000e-02, 0.0
3467, 2.9500000e-02, 3.9500000e-02, 0.0
3468, 3.0000000e-02, 3.9500000e-02, 0.0
3469, 3.0500000e-02, 3.9500000e-02, 0.0
3470, 3.1000000e-02, 3.9500000e-02, 0.0
3471, 3.1500000e-02, 3.9500000e-02, 0.0
3472, 3.1826348e-02, 3.9500000e-02, 0.0
3473, 3.2000000e-02, 3.9500000e-02, 0.0
3474, 3.2158503e-02, 3.9500000e-02, 0.0
3475, 3.2500000e-02, 3.9500000e-02, 0.0
3476, 3.3000000e-02, 3.9500000e-02, 0.0
3477, 3.3500000e-02, 3.9500000e-02, 0.0
3478, 3.4000000e-02, 3.9500000e-02, 0.0
3479, 3.4500000e-02, 3.9500000e-02, 0.0
3480, 3.5000000e-02, 3.9500000e-02, 0.0
3481, 3.5422098e-02, 3.9500000e-02, 0.0
3482, 3.5500000e-02, 3.9500000e-02, 0.0
3483, 3.5818722e-02, 3.9500000e-02, 0.0
3484, 3.6000000e-02, 3.9500000e-02, 0.0
3485, 3.6500000e-02, 3.9500000e-02, 0.0
3486, 3.7000000e-02, 3.9500000e-02, 0.0
3487, 3.7500000e-02, 3.9500000e-02, 0.0
3488, 3.8000000e-02, 3.9500000e-02, 0.0
3489, 3.8500000e-02, 3.9500000e-02, 0.0
3490, 3.8955553e-02, 3.9500000e-02, 0.0
3491, 3.9000000e-02, 3.9500000e-02, 0.0
3492, 3.9500000e-02, 3.9500000e-02, 0.0
3493, 4.0000000e-02, 3.9500000e-02, 0.0
3494, 4.0319382e-02, 3.9500000e-02, 0.0
3495, 4.0500000e-02, 3.9500000e-02, 0.0
3496, 4.1000000e-02, 3.9500000e-02, 0.0
3497, 4.1500000e-02, 3.9500000e-02, 0.0
3498, 4.2000000e-02, 3.9500000e-02, 0.0
3499, 4.2500000e-02, 3.9500000e-02, 0.0
3500, 4.2756638e-02, 3.9500000e-02, 0.0
3501, 4.3000000e-02, 3.9500000e-02, 0.0
3502, 4.3500000e-02, 3.9000000e-02, 0.0
3503, 4.3500000e-02, 3.9500000e-02, 0.0
3504, 4.4000000e-02, 3.9000000e-02, 0.0
3505, 4.4000000e-02, 3.9500000e-02, 0.0
3506, 8.0000000e-03, 4.0000000e-02, 0.0
3507, 7.5000000e-03, 4.0000000e-02, 0.0
3508, 8.5000000e-03, 4.0000000e-02, 0.0
3509, 9.0000000e-03, 4.0000000e-02, 0.0
3510, 9.5000000e-03, 4.0000000e-02, 0.0
3511, 1.0000000e-02, 4.0000000e-02, 0.0
3512, 1.0500000e-02, 4.0000000e-02, 0.0
3513, 1.1000000e-02, 4.0000000e-02, 0.0
3514, 1.1030671e-02, 4.0000000e-02, 0.0
3515, 1.1500000e-02, 4.0000000e-02, 0.0
3516, 1.2000000e-02, 4.0000000e-02, 0.0
3517, 1.2500000e-02, 4.0000000e-02, 0.0
3518, 1.3000000e-02, 4.0000000e-02, 0.0
3519, 1.3500000e-02, 4.0000000e-02, 0.0
3520, 1.4000000e-02, 4.0000000e-02, 0.0
3521, 1.4500000e-02, 4.0000000e-02, 0.0
3522, 1.4707561e-02, 4.0000000e-02, 0.0
3523, 1.4855500e-02, 4.0000000e-02, 0.0
3524, 1.5000000e-02, 4.0000000e-02, 0.0
3525, 1.5297833e-02, 4.0000000e-02, 0.0
3526, 1.5500000e-02, 4.0000000e-02, 0.0
3527, 1.6000000e-02, 4.0000000e-02, 0.0
3528, 1.6032328e-02, 4.0000000e-02, 0.0
3529, 1.6500000e-02, 4.0000000e-02, 0.0
3530, 1.7000000e-02, 4.0000000e-02, 0.0
3531, 1.7056755e-02, 4.0000000e-02, 0.0
3532, 1.7500000e-02, 4.0000000e-02, 0.0
3533, 1.8000000e-02, 4.0000000e-02, 0.0
3534, 1.8368883e-02, 4.0000000e-02, 0.0
3535, 1.8500000e-02, 4.0000000e-02, 0.0
3536, 1.9000000e-02, 4.0000000e-02, 0.0
3537, 1.9500000e-02, 4.0000000e-02, 0.0
3538, 1.9966484e-02, 4.0000000e-02, 0.0
3539, 2.0000000e-02, 4.0000000e-02, 0.0
3540, 2.0500000e-02, 4.0000000e-02, 0.0
3541, 2.1000000e-02, 4.0000000e-02, 0.0
3542, 2.1500000e-02, 4.0000000e-02, 0.0
3543, 2.1847326e-02, 4.0000000e-02, 0.0
3544, 2.2000000e-02, 4.0000000e-02, 0.0
3545, 2.2500000e-02, 4.0000000e-02, 0.0
3546, 2.2994457e-02, 4.0000000e-02, 0.0
3547, 2.3500000e-02, 4.0000000e-02, 0.0
3548, 2.3926312e-02, 4.0000000e-02, 0.0
3549, 2.4000000e-02, 4.0000000e-02, 0.0
3550, 2.4500000e-02, 4.0000000e-02, 0.0
3551, 2.5000000e-02, 4.0000000e-02, 0.0
3552, 2.5500000e-02, 4.0000000e-02, 0.0
3553, 2.5777404e-02, 4.0000000e-02, 0.0
3554, 2.6000000e-02, 4.0000000e-02, 0.0
3555, 2.6449813e-02, 4.0000000e-02, 0.0
3556, 2.6500000e-02, 4.0000000e-02, 0.0
3557, 2.7000000e-02, 4.0000000e-02, 0.0
3558, 2.7500000e-02, 4.0000000e-02, 0.0
3559, 2.8000000e-02, 4.0000000e-02, 0.0
3560, 2.8444995e-02, 4.0000000e-02, 0.0
3561, 2.8500000e-02, 4.0000000e-02, 0.0
3562, 2.9000000e-02, 4.0000000e-02, 0.0
3563, 2.9166998e-02, 4.0000000e-02, 0.0
3564, 2.9500000e-02, 4.0000000e-02, 0.0
3565, 3.0000000e-02, 4.0000000e-02, 0.0
3566, 3.0500000e-02, 4.0000000e-02, 0.0
3567, 3.1000000e-02, 4.0000000e-02, 0.0
3568, 3.1500000e-02, 4.0000000e-02, 0.0
3569, 3.1826348e-02, 4.0000000e-02, 0.0
3570, 3.2000000e-02, 4.0000000e-02, 0.0
3571, 3.2158503e-02, 4.0000000e-02, 0.0
3572, 3.2500000e-02, 4.0000000e-02, 0.0
3573, 3.3000000e-02, 4.0000000e-02, 0.0
3574, 3.3500000e-02, 4.0000000e-02, 0.0
3575, 3.4000000e-02, 4.0000000e-02, 0.0
3576, 3.4500000e-02, 4.0000000e-02, 0.0
3577, 3.5000000e-02, 4.0000000e-02, 0.0
3578, 3.5422098e-02, 4.0000000e-02, 0.0
3579, 3.5500000e-02, 4.0000000e-02, 0.0
3580, 3.5818722e-02, 4.0000000e-02, 0.0
3581, 3.6000000e-02, 4.0000000e-02, 0.0
3582, 3.6500000e-02, 4.0000000e-02, 0.0
3583, 3.7000000e-02, 4.0000000e-02, 0.0
3584, 3.7500000e-02, 4.0000000e-02, 0.0
3585, 3.8000000e-02, 4.0000000e-02, 0.0
3586, 3.8500000e-02, 4.0000000e-02, 0.0
3587, 3.8955553e-02, 4.0000000e-02, 0.0
3588, 3.9000000e-02, 4.0000000e-02, 0.0
3589, 3.9500000e-02, 4.0000000e-02, 0.0
3590, 4.0000000e-02, 4.0000000e-02, 0.0
3591, 4.0319382e-02, 4.0000000e-02, 0.0
3592, 4.0500000e-02, 4.0000000e-02, 0.0
3593, 4.1000000e-02, 4.0000000e-02, 0.0
3594, 4.1500000e-02, 4.0000000e-02, 0.0
3595, 4.2000000e-02, 4.0000000e-02, 0.0
3596, 4.2500000e-02, 4.0000000e-02, 0.0
3597, 4.2756638e-02, 4.0000000e-02, 0.0
3598, 4.3000000e-02, 4.0000000e-02, 0.0
3599, 4.3500000e-02, 4.0000000e-02, 0.0
3600, 4.4000000e-02, 4.0000000e-02, 0.0
3601, 4.4500000e-02, 3.9500000e-02, 0.0
3602, 4.4500000e-02, 4.0000000e-02, 0.0
3603, 4.5000000e-02, 3.9500000e-02, 0.0
3604, 4.5000000e-02, 4.0000000e-02, 0.0
3605, 4.5225587e-02, 3.9500000e-02, 0.0
3606, 4.5225587e-02, 4.0000000e-02, 0.0
3607, 4.5500000e-02, 3.9500000e-02, 0.0
3608, 4.5500000e-02, 4.0000000e-02, 0.0
3609, 4.6000000e-02, 3.9500000e-02, 0.0
3610, 4.6000000e-02, 4.0000000e-02, 0.0
3611, 8.0000000e-03, 4.0025269e-02, 0.0
3612, 7.5000000e-03, 4.0025269e-02, 0.0
3613, 8.5000000e-03, 4.0025269e-02, 0.0
3614, 9.0000000e-03, 4.0025269e-02, 0.0
3615, 9.5000000e-03, 4.0025269e-02, 0.0
3616, 1.0000000e-02, 4.0025269e-02, 0.0
3617, 1.0500000e-02, 4.0025269e-02, 0.0
3618, 1.1000000e-02, 4.0025269e-02, 0.0
3619, 1.1030671e-02, 4.0025269e-02, 0.0
3620, 1.1500000e-02, 4.0025269e-02, 0.0
3621, 1.2000000e-02, 4.0025269e-02, 0.0
3622, 1.2500000e-02, 4.0025269e-02, 0.0
3623, 1.3000000e-02, 4.0025269e-02, 0.0
3624, 1.3500000e-02, 4.0025269e-02, 0.0
3625, 1.4000000e-02, 4.0025269e-02, 0.0
3626, 1.4500000e-02, 4.0025269e-02, 0.0
3627, 1.4707561e-02, 4.0025269e-02, 0.0
3628, 1.4855500e-02, 4.0025269e-02, 0.0
3629, 1.5000000e-02, 4.0025269e-02, 0.0
3630, 1.5297833e-02, 4.0025269e-02, 0.0
3631, 1.5500000e-02, 4.0025269e-02, 0.0
3632, 1.6000000e-02, 4.0025269e-02, 0.0
3633, 1.6032328e-02, 4.0025269e-02, 0.0
3634, 1.6500000e-02, 4.0025269e-02, 0.0
3635, 1.7000000e-02, 4.0025269e-02, 0.0
3636, 1.7056755e-02, 4.0025269e-02, 0.0
3637, 1.7500000e-02, 4.0025269e-02, 0.0
3638, 1.8000000e-02, 4.0025269e-02, 0.0
3639, 1.8368883e-02, 4.0025269e-02, 0.0
3640, 1.8500000e-02, 4.0025269e-02, 0.0
3641, 1.9000000e-02, 4.0025269e-02, 0.0
3642, 1.9500000e-02, 4.0025269e-02, 0.0
3643, 1.9966484e-02, 4.0025269e-02, 0.0
3644, 2.0000000e-02, 4.0025269e-02, 0.0
3645, 2.0500000e-02, 4.0025269e-02, 0.0
3646, 2.1000000e-02, 4.0025269e-02, 0.0
3647, 2.1500000e-02, 4.0025269e-02, 0.0
3648, 2.1847326e-02, 4.0025269e-02, 0.0
3649, 2.2000000e-02, 4.0025269e-02, 0.0
3650, 2.2500000e-02, 4.0025269e-02, 0.0
3651, 2.2994457e-02, 4.0025269e-02, 0.0
3652, 2.3500000e-02, 4.0025269e-02, 0.0
3653, 2.3926312e-02, 4.0025269e-02, 0.0
3654, 2.4000000e-02, 4.0025269e-02, 0.0
3655, 2.4500000e-02, 4.0025269e-02, 0.0
3656, 2.5000000e-02, 4.0025269e-02, 0.0
3657, 2.5500000e-02, 4.0025269e-02, 0.0
3658, 2.5777404e-02, 4.0025269e-02, 0.0
3659, 2.6000000e-02, 4.0025269e-02, 0.0
3660, 2.6449813e-02, 4.0025269e-02, 0.0
3661, 2.6500000e-02, 4.0025269e-02, 0.0
3662, 2.7000000e-02, 4.0025269e-02, 0.0
3663, 2.7500000e-02, 4.0025269e-02, 0.0
3664, 2.8000000e-02, 4.0025269e-02, 0.0
3665, 2.8444995e-02, 4.0025269e-02, 0.0
3666, 2.8500000e-02, 4.0025269e-02, 0.0
3667, 2.9000000e-02, 4.0025269e-02, 0.0
3668, 2.9166998e-02, 4.0025269e-02, 0.0
3669, 2.9500000e-02, 4.0025269e-02, 0.0
3670, 3.0000000e-02, 4.0025269e-02, 0.0
3671, 3.0500000e-02, 4.0025269e-02, 0.0
3672, 3.1000000e-02, 4.0025269e-02, 0.0
3673, 3.1500000e-02, 4.0025269e-02, 0.0
3674, 3.1826348e-02, 4.0025269e-02, 0.0
3675, 3.2000000e-02, 4.0025269e-02, 0.0
3676, 3.2158503e-02, 4.0025269e-02, 0.0
3677, 3.2500000e-02, 4.0025269e-02, 0.0
3678, 3.3000000e-02, 4.0025269e-02, 0.0
3679, 3.3500000e-02, 4.0025269e-02, 0.0
3680, 3.4000000e-02, 4.0025269e-02, 0.0
3681, 3.4500000e-02, 4.0025269e-02, 0.0
3682, 3.5000000e-02, 4.0025269e-02, 0.0
3683, 3.5422098e-02, 4.0025269e-02, 0.0
3684, 3.5500000e-02, 4.0025269e-02, 0.0
3685, 3.5818722e-02, 4.0025269e-02, 0.0
3686, 3.6000000e-02, 4.0025269e-02, 0.0
3687, 3.6500000e-02, 4.0025269e-02, 0.0
3688, 3.7000000e-02, 4.0025269e-02, 0.0
3689, 3.7500000e-02, 4.0025269e-02, 0.0
3690, 3.8000000e-02, 4.0025269e-02, 0.0
3691, 3.8500000e-02, 4.0025269e-02, 0.0
3692, 3.8955553e-02, 4.0025269e-02, 0.0
3693, 3.9000000e-02, 4.0025269e-02, 0.0
3694, 3.9500000e-02, 4.0025269e-02, 0.0
3695, 4.0000000e-02, 4.0025269e-02, 0.0
3696, 4.0319382e-02, 4.0025269e-02, 0.0
3697, 4.0500000e-02, 4.0025269e-02, 0.0
3698, 4.1000000e-02, 4.0025269e-02, 0.0
3699, 4.1500000e-02, 4.0025269e-02, 0.0
3700, 4.2000000e-02, 4.0025269e-02, 0.0
3701, 4.2500000e-02, 4.0025269e-02, 0.0
3702, 4.2756638e-02, 4.0025269e-02, 0.0
3703, 4.3000000e-02, 4.0025269e-02, 0.0
3704, 4.3500000e-02, 4.0025269e-02, 0.0
3705, 4.4000000e-02, 4.0025269e-02, 0.0
3706, 4.4500000e-02, 4.0025269e-02, 0.0
3707, 4.5000000e-02, 4.0025269e-02, 0.0
3708, 4.5225587e-02, 4.0025269e-02, 0.0
3709, 4.5500000e-02, 4.0025269e-02, 0.0
3710, 4.6000000e-02, 4.0025269e-02, 0.0
3711, 4.6500000e-02, 4.0000000e-02, 0.0
3712, 4.6500000e-02, 4.0025269e-02, 0.0
3713, 4.6823122e-02, 4.0000000e-02, 0.0
3714, 4.6823122e-02, 4.0025269e-02, 0.0
3715, 8.0000000e-03, 4.0500000e-02, 0.0
3716, 7.5000000e-03, 4.0500000e-02, 0.0
3717, 8.5000000e-03, 4.0500000e-02, 0.0
3718, 9.0000000e-03, 4.0500000e-02, 0.0
3719, 9.5000000e-03, 4.0500000e-02, 0.0
3720, 1.0000000e-02, 4.0500000e-02, 0.0
3721, 1.0500000e-02, 4.0500000e-02, 0.0
3722, 1.1000000e-02, 4.0500000e-02, 0.0
3723, 1.1030671e-02, 4.0500000e-02, 0.0
3724, 1.1500000e-02, 4.0500000e-02, 0.0
3725, 1.2000000e-02, 4.0500000e-02, 0.0
3726, 1.2500000e-02, 4.0500000e-02, 0.0
3727, 1.3000000e-02, 4.0500000e-02, 0.0
3728, 1.3500000e-02, 4.0500000e-02, 0.0
3729, 1.4000000e-02, 4.0500000e-02, 0.0
3730, 1.4500000e-02, 4.0500000e-02, 0.0
3731, 1.4707561e-02, 4.0500000e-02, 0.0
3732, 1.4855500e-02, 4.0500000e-02, 0.0
3733, 1.5000000e-02, 4.0500000e-02, 0.0
3734, 1.5297833e-02, 4.0500000e-02, 0.0
3735, 1.5500000e-02, 4.0500000e-02, 0.0
3736, 1.6000000e-02, 4.0500000e-02, 0.0
3737, 1.6032328e-02, 4.0500000e-02, 0.0
3738, 1.6500000e-02, 4.0500000e-02, 0.0
3739, 1.7000000e-02, 4.0500000e-02, 0.0
3740, 1.7056755e-02, 4.0500000e-02, 0.0
3741, 1.7500000e-02, 4.0500000e-02, 0.0
3742, 1.8000000e-02, 4.0500000e-02, 0.0
3743, 1.8368883e-02, 4.0500000e-02, 0.0
3744, 1.8500000e-02, 4.0500000e-02, 0.0
3745, 1.9000000e-02, 4.0500000e-02, 0.0
3746, 1.9500000e-02, 4.0500000e-02, 0.0
3747, 1.9966484e-02, 4.0500000e-02, 0.0
3748, 2.0000000e-02, 4.0500000e-02, 0.0
3749, 2.0500000e-02, 4.0500000e-02, 0.0
3750, 2.1000000e-02, 4.0500000e-02, 0.0
3751, 2.1500000e-02, 4.0500000e-02, 0.0
3752, 2.1847326e-02, 4.0500000e-02, 0.0
3753, 2.2000000e-02, 4.0500000e-02, 0.0
3754, 2.2500000e-02, 4.0500000e-02, 0.0
3755, 2.2994457e-02, 4.0500000e-02, 0.0
3756, 2.3500000e-02, 4.0500000e-02, 0.0
3757, 2.3926312e-02, 4.0500000e-02, 0.0
3758, 2.4000000e-02, 4.0500000e-02, 0.0
3759, 2.4500000e-02, 4.0500000e-02, 0.0
3760, 2.5000000e-02, 4.0500000e-02, 0.0
3761, 2.5500000e-02, 4.0500000e-02, 0.0
3762, 2.5777404e-02, 4.0500000e-02, 0.0
3763, 2.6000000e-02, 4.0500000e-02, 0.0
3764, 2.6449813e-02, 4.0500000e-02, 0.0
3765, 2.6500000e-02, 4.0500000e-02, 0.0
3766, 2.7000000e-02, 4.0500000e-02, 0.0
3767, 2.7500000e-02, 4.0500000e-02, 0.0
3768, 2.8000000e-02, 4.0500000e-02, 0.0
3769, 2.8444995e-02, 4.0500000e-02, 0.0
3770, 2.8500000e-02, 4.0500000e-02, 0.0
3771, 2.9000000e-02, 4.0500000e-02, 0.0
3772, 2.9166998e-02, 4.0500000e-02, 0.0
3773, 2.9500000e-02, 4.0500000e-02, 0.0
3774, 3.0000000e-02, 4.0500000e-02, 0.0
3775, 3.0500000e-02, 4.0500000e-02, 0.0
3776, 3.1000000e-02, 4.0500000e-02, 0.0
3777, 3.1500000e-02, 4.0500000e-02, 0.0
3778, 3.1826348e-02, 4.0500000e-02, 0.0
3779, 3.2000000e-02, 4.0500000e-02, 0.0
3780, 3.2158503e-02, 4.0500000e-02, 0.0
3781, 3.2500000e-02, 4.0500000e-02, 0.0
3782, 3.3000000e-02, 4.0500000e-02, 0.0
3783, 3.3500000e-02, 4.0500000e-02, 0.0
3784, 3.4000000e-02, 4.0500000e-02, 0.0
3785, 3.4500000e-02, 4.0500000e-02, 0.0
3786, 3.5000000e-02, 4.0500000e-02, 0.0
3787, 3.5422098e-02, 4.0500000e-02, 0.0
3788, 3.5500000e-02, 4.0500000e-02, 0.0
3789, 3.5818722e-02, 4.0500000e-02, 0.0
3790, 3.6000000e-02, 4.0500000e-02, 0.0
3791, 3.6500000e-02, 4.0500000e-02, 0.0
3792, 3.7000000e-02, 4.0500000e-02, 0.0
3793, 3.7500000e-02, 4.0500000e-02, 0.0
3794, 3.8000000e-02, 4.0500000e-02, 0.0
3795, 3.8500000e-02, 4.0500000e-02, 0.0
3796, 3.8955553e-02, 4.0500000e-02, 0.0
3797, 3.9000000e-02, 4.0500000e-02, 0.0
3798, 3.9500000e-02, 4.0500000e-02, 0.0
3799, 4.0000000e-02, 4.0500000e-02, 0.0
3800, 4.0319382e-02, 4.0500000e-02, 0.0
3801, 4.0500000e-02, 4.0500000e-02, 0.0
3802, 4.1000000e-02, 4.0500000e-02, 0.0
3803, 4.1500000e-02, 4.0500000e-02, 0.0
3804, 4.2000000e-02, 4.0500000e-02, 0.0
3805, 4.2500000e-02, 4.0500000e-02, 0.0
3806, 4.2756638e-02, 4.0500000e-02, 0.0
3807, 4.3000000e-02, 4.0500000e-02, 0.0
3808, 4.3500000e-02, 4.0500000e-02, 0.0
3809, 4.4000000e-02, 4.0500000e-02, 0.0
3810, 4.4500000e-02, 4.0500000e-02, 0.0
3811, 4.5000000e-02, 4.0500000e-02, 0.0
3812, 4.5225587e-02, 4.0500000e-02, 0.0
3813, 4.5500000e-02, 4.0500000e-02, 0.0
3814, 4.6000000e-02, 4.0500000e-02, 0.0
3815, 4.6500000e-02, 4.0500000e-02, 0.0
3816, 4.6823122e-02, 4.0500000e-02, 0.0
3817, 4.7000000e-02, 4.0025269e-02, 0.0
3818, 4.7000000e-02, 4.0500000e-02, 0.0
3819, 4.7500000e-02, 4.0025269e-02, 0.0
3820, 4.7500000e-02, 4.0500000e-02, 0.0
3821, 4.8000000e-02, 4.0025269e-02, 0.0
3822, 4.8000000e-02, 4.0500000e-02, 0.0
3823, 8.0000000e-03, 4.0893366e-02, 0.0
3824, 7.5000000e-03, 4.0893366e-02, 0.0
3825, 8.5000000e-03, 4.0893366e-02, 0.0
3826, 9.0000000e-03, 4.0893366e-02, 0.0
3827, 9.5000000e-03, 4.0893366e-02, 0.0
3828, 1.0000000e-02, 4.0893366e-02, 0.0
3829, 1.0500000e-02, 4.0893366e-02, 0.0
3830, 1.1000000e-02, 4.0893366e-02, 0.0
3831, 1.1030671e-02, 4.0893366e-02, 0.0
3832, 1.1500000e-02, 4.0893366e-02, 0.0
3833, 1.2000000e-02, 4.0893366e-02, 0.0
3834, 1.2500000e-02, 4.0893366e-02, 0.0
3835, 1.3000000e-02, 4.0893366e-02, 0.0
3836, 1.3500000e-02, 4.0893366e-02, 0.0
3837, 1.4000000e-02, 4.0893366e-02, 0.0
3838, 1.4500000e-02, 4.0893366e-02, 0.0
3839, 1.4707561e-02, 4.0893366e-02, 0.0
3840, 1.4855500e-02, 4.0893366e-02, 0.0
3841, 1.5000000e-02, 4.0893366e-02, 0.0
3842, 1.5297833e-02, 4.0893366e-02, 0.0
3843, 1.5500000e-02, 4.0893366e-02, 0.0
3844, 1.6000000e-02, 4.0893366e-02, 0.0
3845, 1.6032328e-02, 4.0893366e-02, 0.0
3846, 1.6500000e-02, 4.0893366e-02, 0.0
3847, 1.7000000e-02, 4.0893366e-02, 0.0
3848, 1.7056755e-02, 4.0893366e-02, 0.0
3849, 1.7500000e-02, 4.0893366e-02, 0.0
3850, 1.8000000e-02, 4.0893366e-02, 0.0
3851, 1.8368883e-02, 4.0893366e-02, 0.0
3852, 1.8500000e-02, 4.0893366e-02, 0.0
3853, 1.9000000e-02, 4.0893366e-02, 0.0
3854, 1.9500000e-02, 4.0893366e-02, 0.0
3855, 1.9966484e-02, 4.0893366e-02, 0.0
3856, 2.0000000e-02, 4.0893366e-02, 0.0
3857, 2.0500000e-02, 4.0893366e-02, 0.0
3858, 2.1000000e-02, 4.0893366e-02, 0.0
3859, 2.1500000e-02, 4.0893366e-02, 0.0
3860, 2.1847326e-02, 4.0893366e-02, 0.0
3861, 2.2000000e-02, 4.0893366e-02, 0.0
3862, 2.2500000e-02, 4.0893366e-02, 0.0
3863, 2.2994457e-02, 4.0893366e-02, 0.0
3864, 2.3500000e-02, 4.0893366e-02, 0.0
3865, 2.3926312e-02, 4.0893366e-02, 0.0
3866, 2.4000000e-02, 4.0893366e-02, 0.0
3867, 2.4500000e-02, 4.0893366e-02, 0.0
3868, 2.5000000e-02, 4.0893366e-02, 0.0
3869, 2.5500000e-02, 4.0893366e-02, 0.0
3870, 2.5777404e-02, 4.0893366e-02, 0.0
3871, 2.6000000e-02, 4.0893366e-02, 0.0
3872, 2.6449813e-02, 4.0893366e-02, 0.0
3873, 2.6500000e-02, 4.0893366e-02, 0.0
3874, 2.7000000e-02, 4.0893366e-02, 0.0
3875, 2.7500000e-02, 4.0893366e-02, 0.0
3876, 2.8000000e-02, 4.0893366e-02, 0.0
3877, 2.8444995e-02, 4.0893366e-02, 0.0
3878, 2.8500000e-02, 4.0893366e-02, 0.0
3879, 2.9000000e-02, 4.0893366e-02, 0.0
3880, 2.9166998e-02, 4.0893366e-02, 0.0
3881, 2.9500000e-02, 4.0893366e-02, 0.0
3882, 3.0000000e-02, 4.0893366e-02, 0.0
3883, 3.0500000e-02, 4.0893366e-02, 0.0
3884, 3.1000000e-02, 4.0893366e-02, 0.0
3885, 3.1500000e-02, 4.0893366e-02, 0.0
3886, 3.1826348e-02, 4.0893366e-02, 0.0
3887, 3.2000000e-02, 4.0893366e-02, 0.0
3888, 3.2158503e-02, 4.0893366e-02, 0.0
3889, 3.2500000e-02, 4.0893366e-02, 0.0
3890, 3.3000000e-02, 4.0893366e-02, 0.0
3891, 3.3500000e-02, 4.0893366e-02, 0.0
3892, 3.4000000e-02, 4.0893366e-02, 0.0
3893, 3.4500000e-02, 4.0893366e-02, 0.0
3894, 3.5000000e-02, 4.0893366e-02, 0.0
3895, 3.5422098e-02, 4.0893366e-02, 0.0
3896, 3.5500000e-02, 4.0893366e-02, 0.0
3897, 3.5818722e-02, 4.0893366e-02, 0.0
3898, 3.6000000e-02, 4.0893366e-02, 0.0
3899, 3.6500000e-02, 4.0893366e-02, 0.0
3900, 3.7000000e-02, 4.0893366e-02, 0.0
3901, 3.7500000e-02, 4.0893366e-02, 0.0
3902, 3.8000000e-02, 4.0893366e-02, 0.0
3903, 3.8500000e-02, 4.0893366e-02, 0.0
3904, 3.8955553e-02, 4.0893366e-02, 0.0
3905, 3.9000000e-02, 4.0893366e-02, 0.0
3906, 3.9500000e-02, 4.0893366e-02, 0.0
3907, 4.0000000e-02, 4.0893366e-02, 0.0
3908, 4.0319382e-02, 4.0893366e-02, 0.0
3909, 4.0500000e-02, 4.0893366e-02, 0.0
3910, 4.1000000e-02, 4.0893366e-02, 0.0
3911, 4.1500000e-02, 4.0893366e-02, 0.0
3912, 4.2000000e-02, 4.0893366e-02, 0.0
3913, 4.2500000e-02, 4.0893366e-02, 0.0
3914, 4.2756638e-02, 4.0893366e-02, 0.0
3915, 4.3000000e-02, 4.0893366e-02, 0.0
3916, 4.3500000e-02, 4.0893366e-02, 0.0
3917, 4.4000000e-02, 4.0893366e-02, 0.0
3918, 4.4500000e-02, 4.0893366e-02, 0.0
3919, 4.5000000e-02, 4.0893366e-02, 0.0
3920, 4.5225587e-02, 4.0893366e-02, 0.0
3921, 4.5500000e-02, 4.0893366e-02, 0.0
3922, 4.6000000e-02, 4.0893366e-02, 0.0
3923, 4.6500000e-02, 4.0893366e-02, 0.0
3924, 4.6823122e-02, 4.0893366e-02, 0.0
3925, 4.7000000e-02, 4.0893366e-02, 0.0
3926, 4.7500000e-02, 4.0893366e-02, 0.0
3927, 4.8000000e-02, 4.0893366e-02, 0.0
3928, 4.8500000e-02, 4.0500000e-02, 0.0
3929, 4.8500000e-02, 4.0893366e-02, 0.0
3930, 4.9000000e-02, 4.0500000e-02, 0.0
3931, 4.9000000e-02, 4.0893366e-02, 0.0
3932, 4.9500000e-02, 4.0500000e-02, 0.0
3933, 4.9500000e-02, 4.0893366e-02, 0.0
3934, 5.0000000e-02, 4.0500000e-02, 0.0
3935, 5.0000000e-02, 4.0893366e-02, 0.0
3936, 8.0000000e-03, 4.1000000e-02, 0.0
3937, 7.5000000e-03, 4.1000000e-02, 0.0
3938, 8.5000000e-03, 4.1000000e-02, 0.0
3939, 9.0000000e-03, 4.1000000e-02, 0.0
3940, 9.5000000e-03, 4.1000000e-02, 0.0
3941, 1.0000000e-02, 4.1000000e-02, 0.0
3942, 1.0500000e-02, 4.1000000e-02, 0.0
3943, 1.1000000e-02, 4.1000000e-02, 0.0
3944, 1.1030671e-02, 4.1000000e-02, 0.0
3945, 1.1500000e-02, 4.1000000e-02, 0.0
3946, 1.2000000e-02, 4.1000000e-02, 0.0
3947, 1.2500000e-02, 4.1000000e-02, 0.0
3948, 1.3000000e-02, 4.1000000e-02, 0.0
3949, 1.3500000e-02, 4.1000000e-02, 0.0
3950, 1.4000000e-02, 4.1000000e-02, 0.0
3951, 1.4500000e-02, 4.1000000e-02, 0.0
3952, 1.4707561e-02, 4.1000000e-02, 0.0
3953, 1.4855500e-02, 4.1000000e-02, 0.0
3954, 1.5000000e-02, 4.1000000e-02, 0.0
3955, 1.5297833e-02, 4.1000000e-02, 0.0
3956, 1.5500000e-02, 4.1000000e-02, 0.0
3957, 1.6000000e-02, 4.1000000e-02, 0.0
3958, 1.6032328e-02, 4.1000000e-02, 0.0
3959, 1.6500000e-02, 4.1000000e-02, 0.0
3960, 1.7000000e-02, 4.1000000e-02, 0.0
3961, 1.7056755e-02, 4.1000000e-02, 0.0
3962, 1.7500000e-02, 4.1000000e-02, 0.0
3963, 1.8000000e-02, 4.1000000e-02, 0.0
3964, 1.8368883e-02, 4.1000000e-02, 0.0
3965, 1.8500000e-02, 4.1000000e-02, 0.0
3966, 1.9000000e-02, 4.1000000e-02, 0.0
3967, 1.9500000e-02, 4.1000000e-02, 0.0
3968, 1.9966484e-02, 4.1000000e-02, 0.0
3969, 2.0000000e-02, 4.1000000e-02, 0.0
3970, 2.0500000e-02, 4.1000000e-02, 0.0
3971, 2.1000000e-02, 4.1000000e-02, 0.0
3972, 2.1500000e-02, 4.1000000e-02, 0.0
3973, 2.1847326e-02, 4.1000000e-02, 0.0
3974, 2.2000000e-02, 4.1000000e-02, 0.0
3975, 2.2500000e-02, 4.1000000e-02, 0.0
3976, 2.2994457e-02, 4.1000000e-02, 0.0
3977, 2.3500000e-02, 4.1000000e-02, 0.0
3978, 2.3926312e-02, 4.1000000e-02, 0.0
3979, 2.4000000e-02, 4.1000000e-02, 0.0
3980, 2.4500000e-02, 4.1000000e-02, 0.0
3981, 2.5000000e-02, 4.1000000e-02, 0.0
3982, 2.5500000e-02, 4.1000000e-02, 0.0
3983, 2.5777404e-02, 4.1000000e-02, 0.0
3984, 2.6000000e-02, 4.1000000e-02, 0.0
3985, 2.6449813e-02, 4.1000000e-02, 0.0
3986, 2.6500000e-02, 4.1000000e-02, 0.0
3987, 2.7000000e-02, 4.1000000e-02, 0.0
3988, 2.7500000e-02, 4.1000000e-02, 0.0
3989, 2.8000000e-02, 4.1000000e-02, 0.0
3990, 2.8444995e-02, 4.1000000e-02, 0.0
3991, 2.8500000e-02, 4.1000000e-02, 0.0
3992, 2.9000000e-02, 4.1000000e-02, 0.0
3993, 2.9166998e-02, 4.1000000e-02, 0.0
3994, 2.9500000e-02, 4.1000000e-02, 0.0
3995, 3.0000000e-02, 4.1000000e-02, 0.0
3996, 3.0500000e-02, 4.1000000e-02, 0.0
3997, 3.1000000e-02, 4.1000000e-02, 0.0
3998, 3.1500000e-02, 4.1000000e-02, 0.0
3999, 3.1826348e-02, 4.1000000e-02, 0.0
4000, 3.2000000e-02, 4.1000000e-02, 0.0
4001, 3.2158503e-02, 4.1000000e-02, 0.0
4002, 3.2500000e-02, 4.1000000e-02, 0.0
4003, 3.3000000e-02, 4.1000000e-02, 0.0
4004, 3.3500000e-02, 4.1000000e-02, 0.0
4005, 3.4000000e-02, 4.1000000e-02, 0.0
4006, 3.4500000e-02, 4.1000000e-02, 0.0
4007, 3.5000000e-02, 4.1000000e-02, 0.0
4008, 3.5422098e-02, 4.1000000e-02, 0.0
4009, 3.5500000e-02, 4.1000000e-02, 0.0
4010, 3.5818722e-02, 4.1000000e-02, 0.0
4011, 3.6000000e-02, 4.1000000e-02, 0.0
4012, 3.6500000e-02, 4.1000000e-02, 0.0
4013, 3.7000000e-02, 4.1000000e-02, 0.0
4014, 3.7500000e-02, 4.1000000e-02, 0.0
4015, 3.8000000e-02, 4.1000000e-02, 0.0
4016, 3.8500000e-02, 4.1000000e-02, 0.0
4017, 3.8955553e-02, 4.1000000e-02, 0.0
4018, 3.9000000e-02, 4.1000000e-02, 0.0
4019, 3.9500000e-02, 4.1000000e-02, 0.0
4020, 4.0000000e-02, 4.1000000e-02, 0.0
4021, 4.0319382e-02, 4.1000000e-02, 0.0
4022, 4.0500000e-02, 4.1000000e-02, 0.0
4023, 4.1000000e-02, 4.1000000e-02, 0.0
4024, 4.1500000e-02, 4.1000000e-02, 0.0
4025, 4.2000000e-02, 4.1000000e-02, 0.0
4026, 4.2500000e-02, 4.1000000e-02, 0.0
4027, 4.2756638e-02, 4.1000000e-02, 0.0
4028, 4.3000000e-02, 4.1000000e-02, 0.0
4029, 4.3500000e-02, 4.1000000e-02, 0.0
4030, 4.4000000e-02, 4.1000000e-02, 0.0
4031, 4.4500000e-02, 4.1000000e-02, 0.0
4032, 4.5000000e-02, 4.1000000e-02, 0.0
4033, 4.5225587e-02, 4.1000000e-02, 0.0
4034, 4.5500000e-02, 4.1000000e-02, 0.0
4035, 4.6000000e-02, 4.1000000e-02, 0.0
4036, 4.6500000e-02, 4.1000000e-02, 0.0
4037, 4.6823122e-02, 4.1000000e-02, 0.0
4038, 4.7000000e-02, 4.1000000e-02, 0.0
4039, 4.7500000e-02, 4.1000000e-02, 0.0
4040, 4.8000000e-02, 4.1000000e-02, 0.0
4041, 4.8500000e-02, 4.1000000e-02, 0.0
4042, 4.9000000e-02, 4.1000000e-02, 0.0
4043, 4.9500000e-02, 4.1000000e-02, 0.0
4044, 5.0000000e-02, 4.1000000e-02, 0.0
4045, 5.0434600e-02, 4.0893366e-02, 0.0
4046, 5.0434600e-02, 4.1000000e-02, 0.0
4047, 5.0500000e-02, 4.0893366e-02, 0.0
4048, 5.0500000e-02, 4.1000000e-02, 0.0
4049, 5.1000000e-02, 4.0893366e-02, 0.0
4050, 5.1000000e-02, 4.1000000e-02, 0.0
4051, 5.1152776e-02, 4.0893366e-02, 0.0
4052, 5.1152776e-02, 4.1000000e-02, 0.0
4053, 5.1500000e-02, 4.0893366e-02, 0.0
4054, 5.1500000e-02, 4.1000000e-02, 0.0
4055, 8.0000000e-03, 4.1500000e-02, 0.0
4056, 7.5000000e-03, 4.1500000e-02, 0.0
4057, 8.5000000e-03, 4.1500000e-02, 0.0
4058, 9.0000000e-03, 4.1500000e-02, 0.0
4059, 9.5000000e-03, 4.1500000e-02, 0.0
4060, 1.0000000e-02, 4.1500000e-02, 0.0
4061, 1.0500000e-02, 4.1500000e-02, 0.0
4062, 1.1000000e-02, 4.1500000e-02, 0.0
4063, 1.1030671e-02, 4.1500000e-02, 0.0
4064, 1.1500000e-02, 4.1500000e-02, 0.0
4065, 1.2000000e-02, 4.1500000e-02, 0.0
4066, 1.2500000e-02, 4.1500000e-02, 0.0
4067, 1.3000000e-02, 4.1500000e-02, 0.0
4068, 1.3500000e-02, 4.1500000e-02, 0.0
4069, 1.4000000e-02, 4.1500000e-02, 0.0
4070, 1.4500000e-02, 4.1500000e-02, 0.0
4071, 1.4707561e-02, 4.1500000e-02, 0.0
4072, 1.4855500e-02, 4.1500000e-02, 0.0
4073, 1.5000000e-02, 4.1500000e-02, 0.0
4074, 1.5297833e-02, 4.1500000e-02, 0.0
4075, 1.5500000e-02, 4.1500000e-02, 0.0
4076, 1.6000000e-02, 4.1500000e-02, 0.0
4077, 1.6032328e-02, 4.1500000e-02, 0.0
4078, 1.6500000e-02, 4.1500000e-02, 0.0
4079, 1.7000000e-02, 4.1500000e-02, 0.0
4080, 1.7056755e-02, 4.1500000e-02, 0.0
4081, 1.7500000e-02, 4.1500000e-02, 0.0
4082, 1.8000000e-02, 4.1500000e-02, 0.0
4083, 1.8368883e-02, 4.1500000e-02, 0.0
4084, 1.8500000e-02, 4.1500000e-02, 0.0
4085, 1.9000000e-02, 4.1500000e-02, 0.0
4086, 1.9500000e-02, 4.1500000e-02, 0.0
4087, 1.9966484e-02, 4.1500000e-02, 0.0
4088, 2.0000000e-02, 4.1500000e-02, 0.0
4089, 2.0500000e-02, 4.1500000e-02, 0.0
4090, 2.1000000e-02, 4.1500000e-02, 0.0
4091, 2.1500000e-02, 4.1500000e-02, 0.0
4092, 2.1847326e-02, 4.1500000e-02, 0.0
4093, 2.2000000e-02, 4.1500000e-02, 0.0
4094, 2.2500000e-02, 4.1500000e-02, 0.0
4095, 2.2994457e-02, 4.1500000e-02, 0.0
4096, 2.3500000e-02, 4.1500000e-02, 0.0
4097, 2.3926312e-02, 4.1500000e-02, 0.0
4098, 2.4000000e-02, 4.1500000e-02, 0.0
4099, 2.4500000e-02, 4.1500000e-02, 0.0
4100, 2.5000000e-02, 4.1500000e-02, 0.0
4101, 2.5500000e-02, 4.1500000e-02, 0.0
4102, 2.5777404e-02, 4.1500000e-02, 0.0
4103, 2.6000000e-02, 4.1500000e-02, 0.0
4104, 2.6449813e-02, 4.1500000e-02, 0.0
4105, 2.6500000e-02, 4.1500000e-02, 0.0
4106, 2.7000000e-02, 4.1500000e-02, 0.0
4107, 2.7500000e-02, 4.1500000e-02, 0.0
4108, 2.8000000e-02, 4.1500000e-02, 0.0
4109, 2.8444995e-02, 4.1500000e-02, 0.0
4110, 2.8500000e-02, 4.1500000e-02, 0.0
4111, 2.9000000e-02, 4.1500000e-02, 0.0
4112, 2.9166998e-02, 4.1500000e-02, 0.0
4113, 2.9500000e-02, 4.1500000e-02, 0.0
4114, 3.0000000e-02, 4.1500000e-02, 0.0
4115, 3.0500000e-02, 4.1500000e-02, 0.0
4116, 3.1000000e-02, 4.1500000e-02, 0.0
4117, 3.1500000e-02, 4.1500000e-02, 0.0
4118, 3.1826348e-02, 4.1500000e-02, 0.0
4119, 3.2000000e-02, 4.1500000e-02, 0.0
4120, 3.2158503e-02, 4.1500000e-02, 0.0
4121, 3.2500000e-02, 4.1500000e-02, 0.0
4122, 3.3000000e-02, 4.1500000e-02, 0.0
4123, 3.3500000e-02, 4.1500000e-02, 0.0
4124, 3.4000000e-02, 4.1500000e-02, 0.0
4125, 3.4500000e-02, 4.1500000e-02, 0.0
4126, 3.5000000e-02, 4.1500000e-02, 0.0
4127, 3.5422098e-02, 4.1500000e-02, 0.0
4128, 3.5500000e-02, 4.1500000e-02, 0.0
4129, 3.5818722e-02, 4.1500000e-02, 0.0
4130, 3.6000000e-02, 4.1500000e-02, 0.0
4131, 3.6500000e-02, 4.1500000e-02, 0.0
4132, 3.7000000e-02, 4.1500000e-02, 0.0
4133, 3.7500000e-02, 4.1500000e-02, 0.0
4134, 3.8000000e-02, 4.1500000e-02, 0.0
4135, 3.8500000e-02, 4.1500000e-02, 0.0
4136, 3.8955553e-02, 4.1500000e-02, 0.0
4137, 3.9000000e-02, 4.1500000e-02, 0.0
4138, 3.9500000e-02, 4.1500000e-02, 0.0
4139, 4.0000000e-02, 4.1500000e-02, 0.0
4140, 4.0319382e-02, 4.1500000e-02, 0.0
4141, 4.0500000e-02, 4.1500000e-02, 0.0
4142, 4.1000000e-02, 4.1500000e-02, 0.0
4143, 4.1500000e-02, 4.1500000e-02, 0.0
4144, 4.2000000e-02, 4.1500000e-02, 0.0
4145, 4.2500000e-02, 4.1500000e-02, 0.0
4146, 4.2756638e-02, 4.1500000e-02, 0.0
4147, 4.3000000e-02, 4.1500000e-02, 0.0
4148, 4.3500000e-02, 4.1500000e-02, 0.0
4149, 4.4000000e-02, 4.1500000e-02, 0.0
4150, 4.4500000e-02, 4.1500000e-02, 0.0
4151, 4.5000000e-02, 4.1500000e-02, 0.0
4152, 4.5225587e-02, 4.1500000e-02, 0.0
4153, 4.5500000e-02, 4.1500000e-02, 0.0
4154, 4.6000000e-02, 4.1500000e-02, 0.0
4155, 4.6500000e-02, 4.1500000e-02, 0.0
4156, 4.6823122e-02, 4.1500000e-02, 0.0
4157, 4.7000000e-02, 4.1500000e-02, 0.0
4158, 4.7500000e-02, 4.1500000e-02, 0.0
4159, 4.8000000e-02, 4.1500000e-02, 0.0
4160, 4.8500000e-02, 4.1500000e-02, 0.0
4161, 4.9000000e-02, 4.1500000e-02, 0.0
4162, 4.9500000e-02, 4.1500000e-02, 0.0
4163, 5.0000000e-02, 4.1500000e-02, 0.0
4164, 5.0434600e-02, 4.1500000e-02, 0.0
4165, 5.0500000e-02, 4.1500000e-02, 0.0
4166, 5.1000000e-02, 4.1500000e-02, 0.0
4167, 5.1152776e-02, 4.1500000e-02, 0.0
4168, 5.1500000e-02, 4.1500000e-02, 0.0
4169, 5.2000000e-02, 4.1000000e-02, 0.0
4170, 5.2000000e-02, 4.1500000e-02, 0.0
4171, 5.2500000e-02, 4.1000000e-02, 0.0
4172, 5.2500000e-02, 4.1500000e-02, 0.0
4173, 5.3000000e-02, 4.1000000e-02, 0.0
4174, 5.3000000e-02, 4.1500000e-02, 0.0
4175, 5.3500000e-02, 4.1000000e-02, 0.0
4176, 5.3500000e-02, 4.1500000e-02, 0.0
4177, 8.0000000e-03, 4.1526983e-02, 0.0
4178, 7.5000000e-03, 4.1526983e-02, 0.0
4179, 8.5000000e-03, 4.1526983e-02, 0.0
4180, 9.0000000e-03, 4.1526983e-02, 0.0
4181, 9.5000000e-03, 4.1526983e-02, 0.0
4182, 1.0000000e-02, 4.1526983e-02, 0.0
4183, 1.0500000e-02, 4.1526983e-02, 0.0
4184, 1.1000000e-02, 4.1526983e-02, 0.0
4185, 1.1030671e-02, 4.1526983e-02, 0.0
4186, 1.1500000e-02, 4.1526983e-02, 0.0
4187, 1.2000000e-02, 4.1526983e-02, 0.0
4188, 1.2500000e-02, 4.1526983e-02, 0.0
4189, 1.3000000e-02, 4.1526983e-02, 0.0
4190, 1.3500000e-02, 4.1526983e-02, 0.0
4191, 1.4000000e-02, 4.1526983e-02, 0.0
4192, 1.4500000e-02, 4.1526983e-02, 0.0
4193, 1.4707561e-02, 4.1526983e-02, 0.0
4194, 1.4855500e-02, 4.1526983e-02, 0.0
4195, 1.5000000e-02, 4.1526983e-02, 0.0
4196, 1.5297833e-02, 4.1526983e-02, 0.0
4197, 1.5500000e-02, 4.1526983e-02, 0.0
4198, 1.6000000e-02, 4.1526983e-02, 0.0
4199, 1.6032328e-02, 4.1526983e-02, 0.0
4200, 1.6500000e-02, 4.1526983e-02, 0.0
4201, 1.7000000e-02, 4.1526983e-02, 0.0
4202, 1.7056755e-02, 4.1526983e-02, 0.0
4203, 1.7500000e-02, 4.1526983e-02, 0.0
4204, 1.8000000e-02, 4.1526983e-02, 0.0
4205, 1.8368883e-02, 4.1526983e-02, 0.0
4206, 1.8500000e-02, 4.1526983e-02, 0.0
4207, 1.9000000e-02, 4.1526983e-02, 0.0
4208, 1.9500000e-02, 4.1526983e-02, 0.0
4209, 1.9966484e-02, 4.1526983e-02, 0.0
4210, 2.0000000e-02, 4.1526983e-02, 0.0
4211, 2.0500000e-02, 4.1526983e-02, 0.0
4212, 2.1000000e-02, 4.1526983e-02, 0.0
4213, 2.1500000e-02, 4.1526983e-02, 0.0
4214, 2.1847326e-02, 4.1526983e-02, 0.0
4215, 2.2000000e-02, 4.1526983e-02, 0.0
4216, 2.2500000e-02, 4.1526983e-02, 0.0
4217, 2.2994457e-02, 4.1526983e-02, 0.0
4218, 2.3500000e-02, 4.1526983e-02, 0.0
4219, 2.3926312e-02, 4.1526983e-02, 0.0
4220, 2.4000000e-02, 4.1526983e-02, 0.0
4221, 2.4500000e-02, 4.1526983e-02, 0.0
4222, 2.5000000e-02, 4.1526983e-02, 0.0
4223, 2.5500000e-02, 4.1526983e-02, 0.0
4224, 2.5777404e-02, 4.1526983e-02, 0.0
4225, 2.6000000e-02, 4.1526983e-02, 0.0
4226, 2.6449813e-02, 4.1526983e-02, 0.0
4227, 2.6500000e-02, 4.1526983e-02, 0.0
4228, 2.7000000e-02, 4.1526983e-02, 0.0
4229, 2.7500000e-02, 4.1526983e-02, 0.0
4230, 2.8000000e-02, 4.1526983e-02, 0.0
4231, 2.8444995e-02, 4.1526983e-02, 0.0
4232, 2.8500000e-02, 4.1526983e-02, 0.0
4233, 2.9000000e-02, 4.1526983e-02, 0.0
4234, 2.9166998e-02, 4.1526983e-02, 0.0
4235, 2.9500000e-02, 4.1526983e-02, 0.0
4236, 3.0000000e-02, 4.1526983e-02, 0.0
4237, 3.0500000e-02, 4.1526983e-02, 0.0
4238, 3.1000000e-02, 4.1526983e-02, 0.0
4239, 3.1500000e-02, 4.1526983e-02, 0.0
4240, 3.1826348e-02, 4.1526983e-02, 0.0
4241, 3.2000000e-02, 4.1526983e-02, 0.0
4242, 3.2158503e-02, 4.1526983e-02, 0.0
4243, 3.2500000e-02, 4.1526983e-02, 0.0
4244, 3.3000000e-02, 4.1526983e-02, 0.0
4245, 3.3500000e-02, 4.1526983e-02, 0.0
4246, 3.4000000e-02, 4.1526983e-02, 0.0
4247, 3.4500000e-02, 4.1526983e-02, 0.0
4248, 3.5000000e-02, 4.1526983e-02, 0.0
4249, 3.5422098e-02, 4.1526983e-02, 0.0
4250, 3.5500000e-02, 4.1526983e-02, 0.0
4251, 3.5818722e-02, 4.1526983e-02, 0.0
4252, 3.6000000e-02, 4.1526983e-02, 0.0
4253, 3.6500000e-02, 4.1526983e-02, 0.0
4254, 3.7000000e-02, 4.1526983e-02, 0.0
4255, 3.7500000e-02, 4.1526983e-02, 0.0
4256, 3.8000000e-02, 4.1526983e-02, 0.0
4257, 3.8500000e-02, 4.1526983e-02, 0.0
4258, 3.8955553e-02, 4.1526983e-02, 0.0
4259, 3.9000000e-02, 4.1526983e-02, 0.0
4260, 3.9500000e-02, 4.1526983e-02, 0.0
4261, 4.0000000e-02, 4.1526983e-02, 0.0
4262, 4.0319382e-02, 4.1526983e-02, 0.0
4263, 4.0500000e-02, 4.1526983e-02, 0.0
4264, 4.1000000e-02, 4.1526983e-02, 0.0
4265, 4.1500000e-02, 4.1526983e-02, 0.0
4266, 4.2000000e-02, 4.1526983e-02, 0.0
4267, 4.2500000e-02, 4.1526983e-02, 0.0
4268, 4.2756638e-02, 4.1526983e-02, 0.0
4269, 4.3000000e-02, 4.1526983e-02, 0.0
4270, 4.3500000e-02, 4.1526983e-02, 0.0
4271, 4.4000000e-02, 4.1526983e-02, 0.0
4272, 4.4500000e-02, 4.1526983e-02, 0.0
4273, 4.5000000e-02, 4.1526983e-02, 0.0
4274, 4.5225587e-02, 4.1526983e-02, 0.0
4275, 4.5500000e-02, 4.1526983e-02, 0.0
4276, 4.6000000e-02, 4.1526983e-02, 0.0
4277, 4.6500000e-02, 4.1526983e-02, 0.0
4278, 4.6823122e-02, 4.1526983e-02, 0.0
4279, 4.7000000e-02, 4.1526983e-02, 0.0
4280, 4.7500000e-02, 4.1526983e-02, 0.0
4281, 4.8000000e-02, 4.1526983e-02, 0.0
4282, 4.8500000e-02, 4.1526983e-02, 0.0
4283, 4.9000000e-02, 4.1526983e-02, 0.0
4284, 4.9500000e-02, 4.1526983e-02, 0.0
4285, 5.0000000e-02, 4.1526983e-02, 0.0
4286, 5.0434600e-02, 4.1526983e-02, 0.0
4287, 5.0500000e-02, 4.1526983e-02, 0.0
4288, 5.1000000e-02, 4.1526983e-02, 0.0
4289, 5.1152776e-02, 4.1526983e-02, 0.0
4290, 5.1500000e-02, 4.1526983e-02, 0.0
4291, 5.2000000e-02, 4.1526983e-02, 0.0
4292, 5.2500000e-02, 4.1526983e-02, 0.0
4293, 5.3000000e-02, 4.1526983e-02, 0.0
4294, 5.3500000e-02, 4.1526983e-02, 0.0
4295, 5.4000000e-02, 4.1500000e-02, 0.0
4296, 5.4000000e-02, 4.1526983e-02, 0.0
4297, 5.4500000e-02, 4.1500000e-02, 0.0
4298, 5.4500000e-02, 4.1526983e-02, 0.0
4299, 5.5000000e-02, 4.1500000e-02, 0.0
4300, 5.5000000e-02, 4.1526983e-02, 0.0
4301, 5.5500000e-02, 4.1500000e-02, 0.0
4302, 5.5500000e-02, 4.1526983e-02, 0.0
4303, 5.5743368e-02, 4.1500000e-02, 0.0
4304, 5.5743368e-02, 4.1526983e-02, 0.0
4305, 8.0000000e-03, 4.1915178e-02, 0.0
4306, 7.5000000e-03, 4.1915178e-02, 0.0
4307, 8.5000000e-03, 4.1915178e-02, 0.0
4308, 9.0000000e-03, 4.1915178e-02, 0.0
4309, 9.5000000e-03, 4.1915178e-02, 0.0
4310, 1.0000000e-02, 4.1915178e-02, 0.0
4311, 1.0500000e-02, 4.1915178e-02, 0.0
4312, 1.1000000e-02, 4.1915178e-02, 0.0
4313, 1.1030671e-02, 4.1915178e-02, 0.0
4314, 1.1500000e-02, 4.1915178e-02, 0.0
4315, 1.2000000e-02, 4.1915178e-02, 0.0
4316, 1.2500000e-02, 4.1915178e-02, 0.0
4317, 1.3000000e-02, 4.1915178e-02, 0.0
4318, 1.3500000e-02, 4.1915178e-02, 0.0
4319, 1.4000000e-02, 4.1915178e-02, 0.0
4320, 1.4500000e-02, 4.1915178e-02, 0.0
4321, 1.4707561e-02, 4.1915178e-02, 0.0
4322, 1.4855500e-02, 4.1915178e-02, 0.0
4323, 1.5000000e-02, 4.1915178e-02, 0.0
4324, 1.5297833e-02, 4.1915178e-02, 0.0
4325, 1.5500000e-02, 4.1915178e-02, 0.0
4326, 1.6000000e-02, 4.1915178e-02, 0.0
4327, 1.6032328e-02, 4.1915178e-02, 0.0
4328, 1.6500000e-02, 4.1915178e-02, 0.0
4329, 1.7000000e-02, 4.1915178e-02, 0.0
4330, 1.7056755e-02, 4.1915178e-02, 0.0
4331, 1.7500000e-02, 4.1915178e-02, 0.0
4332, 1.8000000e-02, 4.1915178e-02, 0.0
4333, 1.8368883e-02, 4.1915178e-02, 0.0
4334, 1.8500000e-02, 4.1915178e-02, 0.0
4335, 1.9000000e-02, 4.1915178e-02, 0.0
4336, 1.9500000e-02, 4.1915178e-02, 0.0
4337, 1.9966484e-02, 4.1915178e-02, 0.0
4338, 2.0000000e-02, 4.1915178e-02, 0.0
4339, 2.0500000e-02, 4.1915178e-02, 0.0
4340, 2.1000000e-02, 4.1915178e-02, 0.0
4341, 2.1500000e-02, 4.1915178e-02, 0.0
4342, 2.1847326e-02, 4.1915178e-02, 0.0
4343, 2.2000000e-02, 4.1915178e-02, 0.0
4344, 2.2500000e-02, 4.1915178e-02, 0.0
4345, 2.2994457e-02, 4.1915178e-02, 0.0
4346, 2.3500000e-02, 4.1915178e-02, 0.0
4347, 2.3926312e-02, 4.1915178e-02, 0.0
4348, 2.4000000e-02, 4.1915178e-02, 0.0
4349, 2.4500000e-02, 4.1915178e-02, 0.0
4350, 2.5000000e-02, 4.1915178e-02, 0.0
4351, 2.5500000e-02, 4.1915178e-02, 0.0
4352, 2.5777404e-02, 4.1915178e-02, 0.0
4353, 2.6000000e-02, 4.1915178e-02, 0.0
4354, 2.6449813e-02, 4.1915178e-02, 0.0
4355, 2.6500000e-02, 4.1915178e-02, 0.0
4356, 2.7000000e-02, 4.1915178e-02, 0.0
4357, 2.7500000e-02, 4.1915178e-02, 0.0
4358, 2.8000000e-02, 4.1915178e-02, 0.0
4359, 2.8444995e-02, 4.1915178e-02, 0.0
4360, 2.8500000e-02, 4.1915178e-02, 0.0
4361, 2.9000000e-02, 4.1915178e-02, 0.0
4362, 2.9166998e-02, 4.1915178e-02, 0.0
4363, 2.9500000e-02, 4.1915178e-02, 0.0
4364, 3.0000000e-02, 4.1915178e-02, 0.0
4365, 3.0500000e-02, 4.1915178e-02, 0.0
4366, 3.1000000e-02, 4.1915178e-02, 0.0
4367, 3.1500000e-02, 4.1915178e-02, 0.0
4368, 3.1826348e-02, 4.1915178e-02, 0.0
4369, 3.2000000e-02, 4.1915178e-02, 0.0
4370, 3.2158503e-02, 4.1915178e-02, 0.0
4371, 3.2500000e-02, 4.1915178e-02, 0.0
4372, 3.3000000e-02, 4.1915178e-02, 0.0
4373, 3.3500000e-02, 4.1915178e-02, 0.0
4374, 3.4000000e-02, 4.1915178e-02, 0.0
4375, 3.4500000e-02, 4.1915178e-02, 0.0
4376, 3.5000000e-02, 4.1915178e-02, 0.0
4377, 3.5422098e-02, 4.1915178e-02, 0.0
4378, 3.5500000e-02, 4.1915178e-02, 0.0
4379, 3.5818722e-02, 4.1915178e-02, 0.0
4380, 3.6000000e-02, 4.1915178e-02, 0.0
4381, 3.6500000e-02, 4.1915178e-02, 0.0
4382, 3.7000000e-02, 4.1915178e-02, 0.0
4383, 3.7500000e-02, 4.1915178e-02, 0.0
4384, 3.8000000e-02, 4.1915178e-02, 0.0
4385, 3.8500000e-02, 4.1915178e-02, 0.0
4386, 3.8955553e-02, 4.1915178e-02, 0.0
4387, 3.9000000e-02, 4.1915178e-02, 0.0
4388, 3.9500000e-02, 4.1915178e-02, 0.0
4389, 4.0000000e-02, 4.1915178e-02, 0.0
4390, 4.0319382e-02, 4.1915178e-02, 0.0
4391, 4.0500000e-02, 4.1915178e-02, 0.0
4392, 4.1000000e-02, 4.1915178e-02, 0.0
4393, 4.1500000e-02, 4.1915178e-02, 0.0
4394, 4.2000000e-02, 4.1915178e-02, 0.0
4395, 4.2500000e-02, 4.1915178e-02, 0.0
4396, 4.2756638e-02, 4.1915178e-02, 0.0
4397, 4.3000000e-02, 4.1915178e-02, 0.0
4398, 4.3500000e-02, 4.1915178e-02, 0.0
4399, 4.4000000e-02, 4.1915178e-02, 0.0
4400, 4.4500000e-02, 4.1915178e-02, 0.0
4401, 4.5000000e-02, 4.1915178e-02, 0.0
4402, 4.5225587e-02, 4.1915178e-02, 0.0
4403, 4.5500000e-02, 4.1915178e-02, 0.0
4404, 4.6000000e-02, 4.1915178e-02, 0.0
4405, 4.6500000e-02, 4.1915178e-02, 0.0
4406, 4.6823122e-02, 4.1915178e-02, 0.0
4407, 4.7000000e-02, 4.1915178e-02, 0.0
4408, 4.7500000e-02, 4.1915178e-02, 0.0
4409, 4.8000000e-02, 4.1915178e-02, 0.0
4410, 4.8500000e-02, 4.1915178e-02, 0.0
4411, 4.9000000e-02, 4.1915178e-02, 0.0
4412, 4.9500000e-02, 4.1915178e-02, 0.0
4413, 5.0000000e-02, 4.1915178e-02, 0.0
4414, 5.0434600e-02, 4.1915178e-02, 0.0
4415, 5.0500000e-02, 4.1915178e-02, 0.0
4416, 5.1000000e-02, 4.1915178e-02, 0.0
4417, 5.1152776e-02, 4.1915178e-02, 0.0
4418, 5.1500000e-02, 4.1915178e-02, 0.0
4419, 5.2000000e-02, 4.1915178e-02, 0.0
4420, 5.2500000e-02, 4.1915178e-02, 0.0
4421, 5.3000000e-02, 4.1915178e-02, 0.0
4422, 5.3500000e-02, 4.1915178e-02, 0.0
4423, 5.4000000e-02, 4.1915178e-02, 0.0
4424, 5.4500000e-02, 4.1915178e-02, 0.0
4425, 5.5000000e-02, 4.1915178e-02, 0.0
4426, 5.5500000e-02, 4.1915178e-02, 0.0
4427, 5.5743368e-02, 4.1915178e-02, 0.0
4428, 5.5843682e-02, 4.1526983e-02, 0.0
4429, 5.5843682e-02, 4.1915178e-02, 0.0
4430, 5.6000000e-02, 4.1526983e-02, 0.0
4431, 5.6000000e-02, 4.1915178e-02, 0.0
4432, 5.6500000e-02, 4.1526983e-02, 0.0
4433, 5.6500000e-02, 4.1915178e-02, 0.0
4434, 5.7000000e-02, 4.1526983e-02, 0.0
4435, 5.7000000e-02, 4.1915178e-02, 0.0
4436, 5.7500000e-02, 4.1526983e-02, 0.0
4437, 5.7500000e-02, 4.1915178e-02, 0.0
4438, 5.8000000e-02, 4.1526983e-02, 0.0
4439, 5.8000000e-02, 4.1915178e-02, 0.0
4440, 8.0000000e-03, 4.2000000e-02, 0.0
4441, 7.5000000e-03, 4.2000000e-02, 0.0
4442, 8.5000000e-03, 4.2000000e-02, 0.0
4443, 9.0000000e-03, 4.2000000e-02, 0.0
4444, 9.5000000e-03, 4.2000000e-02, 0.0
4445, 1.0000000e-02, 4.2000000e-02, 0.0
4446, 1.0500000e-02, 4.2000000e-02, 0.0
4447, 1.1000000e-02, 4.2000000e-02, 0.0
4448, 1.1030671e-02, 4.2000000e-02, 0.0
4449, 1.1500000e-02, 4.2000000e-02, 0.0
4450, 1.2000000e-02, 4.2000000e-02, 0.0
4451, 1.2500000e-02, 4.2000000e-02, 0.0
4452, 1.3000000e-02, 4.2000000e-02, 0.0
4453, 1.3500000e-02, 4.2000000e-02, 0.0
4454, 1.4000000e-02, 4.2000000e-02, 0.0
4455, 1.4500000e-02, 4.2000000e-02, 0.0
4456, 1.4707561e-02, 4.2000000e-02, 0.0
4457, 1.4855500e-02, 4.2000000e-02, 0.0
4458, 1.5000000e-02, 4.2000000e-02, 0.0
4459, 1.5297833e-02, 4.2000000e-02, 0.0
4460, 1.5500000e-02, 4.2000000e-02, 0.0
4461, 1.6000000e-02, 4.2000000e-02, 0.0
4462, 1.6032328e-02, 4.2000000e-02, 0.0
4463, 1.6500000e-02, 4.2000000e-02, 0.0
4464, 1.7000000e-02, 4.2000000e-02, 0.0
4465, 1.7056755e-02, 4.2000000e-02, 0.0
4466, 1.7500000e-02, 4.2000000e-02, 0.0
4467, 1.8000000e-02, 4.2000000e-02, 0.0
4468, 1.8368883e-02, 4.2000000e-02, 0.0
4469, 1.8500000e-02, 4.2000000e-02, 0.0
4470, 1.9000000e-02, 4.2000000e-02, 0.0
4471, 1.9500000e-02, 4.2000000e-02, 0.0
4472, 1.9966484e-02, 4.2000000e-02, 0.0
4473, 2.0000000e-02, 4.2000000e-02, 0.0
4474, 2.0500000e-02, 4.2000000e-02, 0.0
4475, 2.1000000e-02, 4.2000000e-02, 0.0
4476, 2.1500000e-02, 4.2000000e-02, 0.0
4477, 2.1847326e-02, 4.2000000e-02, 0.0
4478, 2.2000000e-02, 4.2000000e-02, 0.0
4479, 2.2500000e-02, 4.2000000e-02, 0.0
4480, 2.2994457e-02, 4.2000000e-02, 0.0
4481, 2.3500000e-02, 4.2000000e-02, 0.0
4482, 2.3926312e-02, 4.2000000e-02, 0.0
4483, 2.4000000e-02, 4.2000000e-02, 0.0
4484, 2.4500000e-02, 4.2000000e-02, 0.0
4485, 2.5000000e-02, 4.2000000e-02, 0.0
4486, 2.5500000e-02, 4.2000000e-02, 0.0
4487, 2.5777404e-02, 4.2000000e-02, 0.0
4488, 2.6000000e-02, 4.2000000e-02, 0.0
4489, 2.6449813e-02, 4.2000000e-02, 0.0
4490, 2.6500000e-02, 4.2000000e-02, 0.0
4491, 2.7000000e-02, 4.2000000e-02, 0.0
4492, 2.7500000e-02, 4.2000000e-02, 0.0
4493, 2.8000000e-02, 4.2000000e-02, 0.0
4494, 2.8444995e-02, 4.2000000e-02, 0.0
4495, 2.8500000e-02, 4.2000000e-02, 0.0
4496, 2.9000000e-02, 4.2000000e-02, 0.0
4497, 2.9166998e-02, 4.2000000e-02, 0.0
4498, 2.9500000e-02, 4.2000000e-02, 0.0
4499, 3.0000000e-02, 4.2000000e-02, 0.0
4500, 3.0500000e-02, 4.2000000e-02, 0.0
4501, 3.1000000e-02, 4.2000000e-02, 0.0
4502, 3.1500000e-02, 4.2000000e-02, 0.0
4503, 3.1826348e-02, 4.2000000e-02, 0.0
4504, 3.2000000e-02, 4.2000000e-02, 0.0
4505, 3.2158503e-02, 4.2000000e-02, 0.0
4506, 3.2500000e-02, 4.2000000e-02, 0.0
4507, 3.3000000e-02, 4.2000000e-02, 0.0
4508, 3.3500000e-02, 4.2000000e-02, 0.0
4509, 3.4000000e-02, 4.2000000e-02, 0.0
4510, 3.4500000e-02, 4.2000000e-02, 0.0
4511, 3.5000000e-02, 4.2000000e-02, 0.0
4512, 3.5422098e-02, 4.2000000e-02, 0.0
4513, 3.5500000e-02, 4.2000000e-02, 0.0
4514, 3.5818722e-02, 4.2000000e-02, 0.0
4515, 3.6000000e-02, 4.2000000e-02, 0.0
4516, 3.6500000e-02, 4.2000000e-02, 0.0
4517, 3.7000000e-02, 4.2000000e-02, 0.0
4518, 3.7500000e-02, 4.2000000e-02, 0.0
4519, 3.8000000e-02, 4.2000000e-02, 0.0
4520, 3.8500000e-02, 4.2000000e-02, 0.0
4521, 3.8955553e-02, 4.2000000e-02, 0.0
4522, 3.9000000e-02, 4.2000000e-02, 0.0
4523, 3.9500000e-02, 4.2000000e-02, 0.0
4524, 4.0000000e-02, 4.2000000e-02, 0.0
4525, 4.0319382e-02, 4.2000000e-02, 0.0
4526, 4.0500000e-02, 4.2000000e-02, 0.0
4527, 4.1000000e-02, 4.2000000e-02, 0.0
4528, 4.1500000e-02, 4.2000000e-02, 0.0
4529, 4.2000000e-02, 4.2000000e-02, 0.0
4530, 4.2500000e-02, 4.2000000e-02, 0.0
4531, 4.2756638e-02, 4.2000000e-02, 0.0
4532, 4.3000000e-02, 4.2000000e-02, 0.0
4533, 4.3500000e-02, 4.2000000e-02, 0.0
4534, 4.4000000e-02, 4.2000000e-02, 0.0
4535, 4.4500000e-02, 4.2000000e-02, 0.0
4536, 4.5000000e-02, 4.2000000e-02, 0.0
4537, 4.5225587e-02, 4.2000000e-02, 0.0
4538, 4.5500000e-02, 4.2000000e-02, 0.0
4539, 4.6000000e-02, 4.2000000e-02, 0.0
4540, 4.6500000e-02, 4.2000000e-02, 0.0
4541, 4.6823122e-02, 4.2000000e-02, 0.0
4542, 4.7000000e-02, 4.2000000e-02, 0.0
4543, 4.7500000e-02, 4.2000000e-02, 0.0
4544, 4.8000000e-02, 4.2000000e-02, 0.0
4545, 4.8500000e-02, 4.2000000e-02, 0.0
4546, 4.9000000e-02, 4.2000000e-02, 0.0
4547, 4.9500000e-02, 4.2000000e-02, 0.0
4548, 5.0000000e-02, 4.2000000e-02, 0.0
4549, 5.0434600e-02, 4.2000000e-02, 0.0
4550, 5.0500000e-02, 4.2000000e-02, 0.0
4551, 5.1000000e-02, 4.2000000e-02, 0.0
4552, 5.1152776e-02, 4.2000000e-02, 0.0
4553, 5.1500000e-02, 4.2000000e-02, 0.0
4554, 5.2000000e-02, 4.2000000e-02, 0.0
4555, 5.2500000e-02, 4.2000000e-02, 0.0
4556, 5.3000000e-02, 4.2000000e-02, 0.0
4557, 5.3500000e-02, 4.2000000e-02, 0.0
4558, 5.4000000e-02, 4.2000000e-02, 0.0
4559, 5.4500000e-02, 4.2000000e-02, 0.0
4560, 5.5000000e-02, 4.2000000e-02, 0.0
4561, 5.5500000e-02, 4.2000000e-02, 0.0
4562, 5.5743368e-02, 4.2000000e-02, 0.0
4563, 5.5843682e-02, 4.2000000e-02, 0.0
4564, 5.6000000e-02, 4.2000000e-02, 0.0
4565, 5.6500000e-02, 4.2000000e-02, 0.0
4566, 5.7000000e-02, 4.2000000e-02, 0.0
4567, 5.7500000e-02, 4.2000000e-02, 0.0
4568, 5.8000000e-02, 4.2000000e-02, 0.0
4569, 5.8500000e-02, 4.1915178e-02, 0.0
4570, 5.8500000e-02, 4.2000000e-02, 0.0
4571, 5.9000000e-02, 4.1915178e-02, 0.0
4572, 5.9000000e-02, 4.2000000e-02, 0.0
4573, 5.9500000e-02, 4.1915178e-02, 0.0
4574, 5.9500000e-02, 4.2000000e-02, 0.0
4575, 6.0000000e-02, 4.1915178e-02, 0.0
4576, 6.0000000e-02, 4.2000000e-02, 0.0
4577, 6.0500000e-02, 4.1915178e-02, 0.0
4578, 6.0500000e-02, 4.2000000e-02, 0.0
4579, 6.0592670e-02, 4.1915178e-02, 0.0
4580, 6.0592670e-02, 4.2000000e-02, 0.0
4581, 6.1000000e-02, 4.1915178e-02, 0.0
4582, 6.1000000e-02, 4.2000000e-02, 0.0
4583, 6.1500000e-02, 4.1915178e-02, 0.0
4584, 6.1500000e-02, 4.2000000e-02, 0.0
4585, 6.2000000e-02, 4.1915178e-02, 0.0
4586, 6.2000000e-02, 4.2000000e-02, 0.0
4587, 8.0000000e-03, 4.2047007e-02, 0.0
4588, 7.5000000e-03, 4.2047007e-02, 0.0
4589, 8.5000000e-03, 4.2047007e-02, 0.0
4590, 9.0000000e-03, 4.2047007e-02, 0.0
4591, 9.5000000e-03, 4.2047007e-02, 0.0
4592, 1.0000000e-02, 4.2047007e-02, 0.0
4593, 1.0500000e-02, 4.2047007e-02, 0.0
4594, 1.1000000e-02, 4.2047007e-02, 0.0
4595, 1.1030671e-02, 4.2047007e-02, 0.0
4596, 1.1500000e-02, 4.2047007e-02, 0.0
4597, 1.2000000e-02, 4.2047007e-02, 0.0
4598, 1.2500000e-02, 4.2047007e-02, 0.0
4599, 1.3000000e-02, 4.2047007e-02, 0.0
4600, 1.3500000e-02, 4.2047007e-02, 0.0
4601, 1.4000000e-02, 4.2047007e-02, 0.0
4602, 1.4500000e-02, 4.2047007e-02, 0.0
4603, 1.4707561e-02, 4.2047007e-02, 0.0
4604, 1.4855500e-02, 4.2047007e-02, 0.0
4605, 1.5000000e-02, 4.2047007e-02, 0.0
4606, 1.5297833e-02, 4.2047007e-02, 0.0
4607, 1.5500000e-02, 4.2047007e-02, 0.0
4608, 1.6000000e-02, 4.2047007e-02, 0.0
4609, 1.6032328e-02, 4.2047007e-02, 0.0
4610, 1.6500000e-02, 4.2047007e-02, 0.0
4611, 1.7000000e-02, 4.2047007e-02, 0.0
4612, 1.7056755e-02, 4.2047007e-02, 0.0
4613, 1.7500000e-02, 4.2047007e-02, 0.0
4614, 1.8000000e-02, 4.2047007e-02, 0.0
4615, 1.8368883e-02, 4.2047007e-02, 0.0
4616, 1.8500000e-02, 4.2047007e-02, 0.0
4617, 1.9000000e-02, 4.2047007e-02, 0.0
4618, 1.9500000e-02, 4.2047007e-02, 0.0
4619, 1.9966484e-02, 4.2047007e-02, 0.0
4620, 2.0000000e-02, 4.2047007e-02, 0.0
4621, 2.0500000e-02, 4.2047007e-02, 0.0
4622, 2.1000000e-02, 4.2047007e-02, 0.0
4623, 2.1500000e-02, 4.2047007e-02, 0.0
4624, 2.1847326e-02, 4.2047007e-02, 0.0
4625, 2.2000000e-02, 4.2047007e-02, 0.0
4626, 2.2500000e-02, 4.2047007e-02, 0.0
4627, 2.2994457e-02, 4.2047007e-02, 0.0
4628, 2.3500000e-02, 4.2047007e-02, 0.0
4629, 2.3926312e-02, 4.2047007e-02, 0.0
4630, 2.4000000e-02, 4.2047007e-02, 0.0
4631, 2.4500000e-02, 4.2047007e-02, 0.0
4632, 2.5000000e-02, 4.2047007e-02, 0.0
4633, 2.5500000e-02, 4.2047007e-02, 0.0
4634, 2.5777404e-02, 4.2047007e-02, 0.0
4635, 2.6000000e-02, 4.2047007e-02, 0.0
4636, 2.6449813e-02, 4.2047007e-02, 0.0
4637, 2.6500000e-02, 4.2047007e-02, 0.0
4638, 2.7000000e-02, 4.2047007e-02, 0.0
4639, 2.7500000e-02, 4.2047007e-02, 0.0
4640, 2.8000000e-02, 4.2047007e-02, 0.0
4641, 2.8444995e-02, 4.2047007e-02, 0.0
4642, 2.8500000e-02, 4.2047007e-02, 0.0
4643, 2.9000000e-02, 4.2047007e-02, 0.0
4644, 2.9166998e-02, 4.2047007e-02, 0.0
4645, 2.9500000e-02, 4.2047007e-02, 0.0
4646, 3.0000000e-02, 4.2047007e-02, 0.0
4647, 3.0500000e-02, 4.2047007e-02, 0.0
4648, 3.1000000e-02, 4.2047007e-02, 0.0
4649, 3.1500000e-02, 4.2047007e-02, 0.0
4650, 3.1826348e-02, 4.2047007e-02, 0.0
4651, 3.2000000e-02, 4.2047007e-02, 0.0
4652, 3.2158503e-02, 4.2047007e-02, 0.0
4653, 3.2500000e-02, 4.2047007e-02, 0.0
4654, 3.3000000e-02, 4.2047007e-02, 0.0
4655, 3.3500000e-02, 4.2047007e-02, 0.0
4656, 3.4000000e-02, 4.2047007e-02, 0.0
4657, 3.4500000e-02, 4.2047007e-02, 0.0
4658, 3.5000000e-02, 4.2047007e-02, 0.0
4659, 3.5422098e-02, 4.2047007e-02, 0.0
4660, 3.5500000e-02, 4.2047007e-02, 0.0
4661, 3.5818722e-02, 4.2047007e-02, 0.0
4662, 3.6000000e-02, 4.2047007e-02, 0.0
4663, 3.6500000e-02, 4.2047007e-02, 0.0
4664, 3.7000000e-02, 4.2047007e-02, 0.0
4665, 3.7500000e-02, 4.2047007e-02, 0.0
4666, 3.8000000e-02, 4.2047007e-02, 0.0
4667, 3.8500000e-02, 4.2047007e-02, 0.0
4668, 3.8955553e-02, 4.2047007e-02, 0.0
4669, 3.9000000e-02, 4.2047007e-02, 0.0
4670, 3.9500000e-02, 4.2047007e-02, 0.0
4671, 4.0000000e-02, 4.2047007e-02, 0.0
4672, 4.0319382e-02, 4.2047007e-02, 0.0
4673, 4.0500000e-02, 4.2047007e-02, 0.0
4674, 4.1000000e-02, 4.2047007e-02, 0.0
4675, 4.1500000e-02, 4.2047007e-02, 0.0
4676, 4.2000000e-02, 4.2047007e-02, 0.0
4677, 4.2500000e-02, 4.2047007e-02, 0.0
4678, 4.2756638e-02, 4.2047007e-02, 0.0
4679, 4.3000000e-02, 4.2047007e-02, 0.0
4680, 4.3500000e-02, 4.2047007e-02, 0.0
4681, 4.4000000e-02, 4.2047007e-02, 0.0
4682, 4.4500000e-02, 4.2047007e-02, 0.0
4683, 4.5000000e-02, 4.2047007e-02, 0.0
4684, 4.5225587e-02, 4.2047007e-02, 0.0
4685, 4.5500000e-02, 4.2047007e-02, 0.0
4686, 4.6000000e-02, 4.2047007e-02, 0.0
4687, 4.6500000e-02, 4.2047007e-02, 0.0
4688, 4.6823122e-02, 4.2047007e-02, 0.0
4689, 4.7000000e-02, 4.2047007e-02, 0.0
4690, 4.7500000e-02, 4.2047007e-02, 0.0
4691, 4.8000000e-02, 4.2047007e-02, 0.0
4692, 4.8500000e-02, 4.2047007e-02, 0.0
4693, 4.9000000e-02, 4.2047007e-02, 0.0
4694, 4.9500000e-02, 4.2047007e-02, 0.0
4695, 5.0000000e-02, 4.2047007e-02, 0.0
4696, 5.0434600e-02, 4.2047007e-02, 0.0
4697, 5.0500000e-02, 4.2047007e-02, 0.0
4698, 5.1000000e-02, 4.2047007e-02, 0.0
4699, 5.1152776e-02, 4.2047007e-02, 0.0
4700, 5.1500000e-02, 4.2047007e-02, 0.0
4701, 5.2000000e-02, 4.2047007e-02, 0.0
4702, 5.2500000e-02, 4.2047007e-02, 0.0
4703, 5.3000000e-02, 4.2047007e-02, 0.0
4704, 5.3500000e-02, 4.2047007e-02, 0.0
4705, 5.4000000e-02, 4.2047007e-02, 0.0
4706, 5.4500000e-02, 4.2047007e-02, 0.0
4707, 5.5000000e-02, 4.2047007e-02, 0.0
4708, 5.5500000e-02, 4.2047007e-02, 0.0
4709, 5.5743368e-02, 4.2047007e-02, 0.0
4710, 5.5843682e-02, 4.2047007e-02, 0.0
4711, 5.6000000e-02, 4.2047007e-02, 0.0
4712, 5.6500000e-02, 4.2047007e-02, 0.0
4713, 5.7000000e-02, 4.2047007e-02, 0.0
4714, 5.7500000e-02, 4.2047007e-02, 0.0
4715, 5.8000000e-02, 4.2047007e-02, 0.0
4716, 5.8500000e-02, 4.2047007e-02, 0.0
4717, 5.9000000e-02, 4.2047007e-02, 0.0
4718, 5.9500000e-02, 4.2047007e-02, 0.0
4719, 6.0000000e-02, 4.2047007e-02, 0.0
4720, 6.0500000e-02, 4.2047007e-02, 0.0
4721, 6.0592670e-02, 4.2047007e-02, 0.0
4722, 6.1000000e-02, 4.2047007e-02, 0.0
4723, 6.1500000e-02, 4.2047007e-02, 0.0
4724, 6.2000000e-02, 4.2047007e-02, 0.0
4725, 6.2500000e-02, 4.2000000e-02, 0.0
4726, 6.2500000e-02, 4.2047007e-02, 0.0
4727, 6.3000000e-02, 4.2000000e-02, 0.0
4728, 6.3000000e-02, 4.2047007e-02, 0.0
4729, 6.3500000e-02, 4.2000000e-02, 0.0
4730, 6.3500000e-02, 4.2047007e-02, 0.0
4731, 6.4000000e-02, 4.2000000e-02, 0.0
4732, 6.4000000e-02, 4.2047007e-02, 0.0
4733, 6.4500000e-02, 4.2000000e-02, 0.0
4734, 6.4500000e-02, 4.2047007e-02, 0.0
4735, 6.5000000e-02, 4.2000000e-02, 0.0
4736, 6.5000000e-02, 4.2047007e-02, 0.0
4737, 8.0000000e-03, 4.2500000e-02, 0.0
4738, 7.5000000e-03, 4.2500000e-02, 0.0
4739, 8.5000000e-03, 4.2500000e-02, 0.0
4740, 9.0000000e-03, 4.2500000e-02, 0.0
4741, 9.5000000e-03, 4.2500000e-02, 0.0
4742, 1.0000000e-02, 4.2500000e-02, 0.0
4743, 1.0500000e-02, 4.2500000e-02, 0.0
4744, 1.1000000e-02, 4.2500000e-02, 0.0
4745, 1.1030671e-02, 4.2500000e-02, 0.0
4746, 1.1500000e-02, 4.2500000e-02, 0.0
4747, 1.2000000e-02, 4.2500000e-02, 0.0
4748, 1.2500000e-02, 4.2500000e-02, 0.0
4749, 1.3000000e-02, 4.2500000e-02, 0.0
4750, 1.3500000e-02, 4.2500000e-02, 0.0
4751, 1.4000000e-02, 4.2500000e-02, 0.0
4752, 1.4500000e-02, 4.2500000e-02, 0.0
4753, 1.4707561e-02, 4.2500000e-02, 0.0
4754, 1.4855500e-02, 4.2500000e-02, 0.0
4755, 1.5000000e-02, 4.2500000e-02, 0.0
4756, 1.5297833e-02, 4.2500000e-02, 0.0
4757, 1.5500000e-02, 4.2500000e-02, 0.0
4758, 1.6000000e-02, 4.2500000e-02, 0.0
4759, 1.6032328e-02, 4.2500000e-02, 0.0
4760, 1.6500000e-02, 4.2500000e-02, 0.0
4761, 1.7000000e-02, 4.2500000e-02, 0.0
4762, 1.7056755e-02, 4.2500000e-02, 0.0
4763, 1.7500000e-02, 4.2500000e-02, 0.0
4764, 1.8000000e-02, 4.2500000e-02, 0.0
4765, 1.8368883e-02, 4.2500000e-02, 0.0
4766, 1.8500000e-02, 4.2500000e-02, 0.0
4767, 1.9000000e-02, 4.2500000e-02, 0.0
4768, 1.9500000e-02, 4.2500000e-02, 0.0
4769, 1.9966484e-02, 4.2500000e-02, 0.0
4770, 2.0000000e-02, 4.2500000e-02, 0.0
4771, 2.0500000e-02, 4.2500000e-02, 0.0
4772, 2.1000000e-02, 4.2500000e-02, 0.0
4773, 2.1500000e-02, 4.2500000e-02, 0.0
4774, 2.1847326e-02, 4.2500000e-02, 0.0
4775, 2.2000000e-02, 4.2500000e-02, 0.0
4776, 2.2500000e-02, 4.2500000e-02, 0.0
4777, 2.2994457e-02, 4.2500000e-02, 0.0
4778, 2.3500000e-02, 4.2500000e-02, 0.0
4779, 2.3926312e-02, 4.2500000e-02, 0.0
4780, 2.4000000e-02, 4.2500000e-02, 0.0
4781, 2.4500000e-02, 4.2500000e-02, 0.0
4782, 2.5000000e-02, 4.2500000e-02, 0.0
4783, 2.5500000e-02, 4.2500000e-02, 0.0
4784, 2.5777404e-02, 4.2500000e-02, 0.0
4785, 2.6000000e-02, 4.2500000e-02, 0.0
4786, 2.6449813e-02, 4.2500000e-02, 0.0
4787, 2.6500000e-02, 4.2500000e-02, 0.0
4788, 2.7000000e-02, 4.2500000e-02, 0.0
4789, 2.7500000e-02, 4.2500000e-02, 0.0
4790, 2.8000000e-02, 4.2500000e-02, 0.0
4791, 2.8444995e-02, 4.2500000e-02, 0.0
4792, 2.8500000e-02, 4.2500000e-02, 0.0
4793, 2.9000000e-02, 4.2500000e-02, 0.0
4794, 2.9166998e-02, 4.2500000e-02, 0.0
4795, 2.9500000e-02, 4.2500000e-02, 0.0
4796, 3.0000000e-02, 4.2500000e-02, 0.0
4797, 3.0500000e-02, 4.2500000e-02, 0.0
4798, 3.1000000e-02, 4.2500000e-02, 0.0
4799, 3.1500000e-02, 4.2500000e-02, 0.0
4800, 3.1826348e-02, 4.2500000e-02, 0.0
4801, 3.2000000e-02, 4.2500000e-02, 0.0
4802, 3.2158503e-02, 4.2500000e-02, 0.0
4803, 3.2500000e-02, 4.2500000e-02, 0.0
4804, 3.3000000e-02, 4.2500000e-02, 0.0
4805, 3.3500000e-02, 4.2500000e-02, 0.0
4806, 3.4000000e-02, 4.2500000e-02, 0.0
4807, 3.4500000e-02, 4.2500000e-02, 0.0
4808, 3.5000000e-02, 4.2500000e-02, 0.0
4809, 3.5422098e-02, 4.2500000e-02, 0.0
4810, 3.5500000e-02, 4.2500000e-02, 0.0
4811, 3.5818722e-02, 4.2500000e-02, 0.0
4812, 3.6000000e-02, 4.2500000e-02, 0.0
4813, 3.6500000e-02, 4.2500000e-02, 0.0
4814, 3.7000000e-02, 4.2500000e-02, 0.0
4815, 3.7500000e-02, 4.2500000e-02, 0.0
4816, 3.8000000e-02, 4.2500000e-02, 0.0
4817, 3.8500000e-02, 4.2500000e-02, 0.0
4818, 3.8955553e-02, 4.2500000e-02, 0.0
4819, 3.9000000e-02, 4.2500000e-02, 0.0
4820, 3.9500000e-02, 4.2500000e-02, 0.0
4821, 4.0000000e-02, 4.2500000e-02, 0.0
4822, 4.0319382e-02, 4.2500000e-02, 0.0
4823, 4.0500000e-02, 4.2500000e-02, 0.0
4824, 4.1000000e-02, 4.2500000e-02, 0.0
4825, 4.1500000e-02, 4.2500000e-02, 0.0
4826, 4.2000000e-02, 4.2500000e-02, 0.0
4827, 4.2500000e-02, 4.2500000e-02, 0.0
4828, 4.2756638e-02, 4.2500000e-02, 0.0
4829, 4.3000000e-02, 4.2500000e-02, 0.0
4830, 4.3500000e-02, 4.2500000e-02, 0.0
4831, 4.4000000e-02, 4.2500000e-02, 0.0
4832, 4.4500000e-02, 4.2500000e-02, 0.0
4833, 4.5000000e-02, 4.2500000e-02, 0.0
4834, 4.5225587e-02, 4.2500000e-02, 0.0
4835, 4.5500000e-02, 4.2500000e-02, 0.0
4836, 4.6000000e-02, 4.2500000e-02, 0.0
4837, 4.6500000e-02, 4.2500000e-02, 0.0
4838, 4.6823122e-02, 4.2500000e-02, 0.0
4839, 4.7000000e-02, 4.2500000e-02, 0.0
4840, 4.7500000e-02, 4.2500000e-02, 0.0
4841, 4.8000000e-02, 4.2500000e-02, 0.0
4842, 4.8500000e-02, 4.2500000e-02, 0.0
4843, 4.9000000e-02, 4.2500000e-02, 0.0
4844, 4.9500000e-02, 4.2500000e-02, 0.0
4845, 5.0000000e-02, 4.2500000e-02, 0.0
4846, 5.0434600e-02, 4.2500000e-02, 0.0
4847, 5.0500000e-02, 4.2500000e-02, 0.0
4848, 5.1000000e-02, 4.2500000e-02, 0.0
4849, 5.1152776e-02, 4.2500000e-02, 0.0
4850, 5.1500000e-02, 4.2500000e-02, 0.0
4851, 5.2000000e-02, 4.2500000e-02, 0.0
4852, 5.2500000e-02, 4.2500000e-02, 0.0
4853, 5.3000000e-02, 4.2500000e-02, 0.0
4854, 5.3500000e-02, 4.2500000e-02, 0.0
4855, 5.4000000e-02, 4.2500000e-02, 0.0
4856, 5.4500000e-02, 4.2500000e-02, 0.0
4857, 5.5000000e-02, 4.2500000e-02, 0.0
4858, 5.5500000e-02, 4.2500000e-02, 0.0
4859, 5.5743368e-02, 4.2500000e-02, 0.0
4860, 5.5843682e-02, 4.2500000e-02, 0.0
4861, 5.6000000e-02, 4.2500000e-02, 0.0
4862, 5.6500000e-02, 4.2500000e-02, 0.0
4863, 5.7000000e-02, 4.2500000e-02, 0.0
4864, 5.7500000e-02, 4.2500000e-02, 0.0
4865, 5.8000000e-02, 4.2500000e-02, 0.0
4866, 5.8500000e-02, 4.2500000e-02, 0.0
4867, 5.9000000e-02, 4.2500000e-02, 0.0
4868, 5.9500000e-02, 4.2500000e-02, 0.0
4869, 6.0000000e-02, 4.2500000e-02, 0.0
4870, 6.0500000e-02, 4.2500000e-02, 0.0
4871, 6.0592670e-02, 4.2500000e-02, 0.0
4872, 6.1000000e-02, 4.2500000e-02, 0.0
4873, 6.1500000e-02, 4.2500000e-02, 0.0
4874, 6.2000000e-02, 4.2500000e-02, 0.0
4875, 6.2500000e-02, 4.2500000e-02, 0.0
4876, 6.3000000e-02, 4.2500000e-02, 0.0
4877, 6.3500000e-02, 4.2500000e-02, 0.0
4878, 6.4000000e-02, 4.2500000e-02, 0.0
4879, 6.4500000e-02, 4.2500000e-02, 0.0
4880, 6.5000000e-02, 4.2500000e-02, 0.0
4881, 6.5500000e-02, 4.2047007e-02, 0.0
4882, 6.5500000e-02, 4.2500000e-02, 0.0
4883, 6.5698449e-02, 4.2047007e-02, 0.0
4884, 6.5698449e-02, 4.2500000e-02, 0.0
4885, 8.0000000e-03, 4.3000000e-02, 0.0
4886, 7.5000000e-03, 4.3000000e-02, 0.0
4887, 8.5000000e-03, 4.3000000e-02, 0.0
4888, 9.0000000e-03, 4.3000000e-02, 0.0
4889, 9.5000000e-03, 4.3000000e-02, 0.0
4890, 1.0000000e-02, 4.3000000e-02, 0.0
4891, 1.0500000e-02, 4.3000000e-02, 0.0
4892, 1.1000000e-02, 4.3000000e-02, 0.0
4893, 1.1030671e-02, 4.3000000e-02, 0.0
4894, 1.1500000e-02, 4.3000000e-02, 0.0
4895, 1.2000000e-02, 4.3000000e-02, 0.0
4896, 1.2500000e-02, 4.3000000e-02, 0.0
4897, 1.3000000e-02, 4.3000000e-02, 0.0
4898, 1.3500000e-02, 4.3000000e-02, 0.0
4899, 1.4000000e-02, 4.3000000e-02, 0.0
4900, 1.4500000e-02, 4.3000000e-02, 0.0
4901, 1.4707561e-02, 4.3000000e-02, 0.0
4902, 1.4855500e-02, 4.3000000e-02, 0.0
4903, 1.5000000e-02, 4.3000000e-02, 0.0
4904, 1.5297833e-02, 4.3000000e-02, 0.0
4905, 1.5500000e-02, 4.3000000e-02, 0.0
4906, 1.6000000e-02, 4.3000000e-02, 0.0
4907, 1.6032328e-02, 4.3000000e-02, 0.0
4908, 1.6500000e-02, 4.3000000e-02, 0.0
4909, 1.7000000e-02, 4.3000000e-02, 0.0
4910, 1.7056755e-02, 4.3000000e-02, 0.0
4911, 1.7500000e-02, 4.3000000e-02, 0.0
4912, 1.8000000e-02, 4.3000000e-02, 0.0
4913, 1.8368883e-02, 4.3000000e-02, 0.0
4914, 1.8500000e-02, 4.3000000e-02, 0.0
4915, 1.9000000e-02, 4.3000000e-02, 0.0
4916, 1.9500000e-02, 4.3000000e-02, 0.0
4917, 1.9966484e-02, 4.3000000e-02, 0.0
4918, 2.0000000e-02, 4.3000000e-02, 0.0
4919, 2.0500000e-02, 4.3000000e-02, 0.0
4920, 2.1000000e-02, 4.3000000e-02, 0.0
4921, 2.1500000e-02, 4.3000000e-02, 0.0
4922, 2.1847326e-02, 4.3000000e-02, 0.0
4923, 2.2000000e-02, 4.3000000e-02, 0.0
4924, 2.2500000e-02, 4.3000000e-02, 0.0
4925, 2.2994457e-02, 4.3000000e-02, 0.0
4926, 2.3500000e-02, 4.3000000e-02, 0.0
4927, 2.3926312e-02, 4.3000000e-02, 0.0
4928, 2.4000000e-02, 4.3000000e-02, 0.0
4929, 2.4500000e-02, 4.3000000e-02, 0.0
4930, 2.5000000e-02, 4.3000000e-02, 0.0
4931, 2.5500000e-02, 4.3000000e-02, 0.0
4932, 2.5777404e-02, 4.3000000e-02, 0.0
4933, 2.6000000e-02, 4.3000000e-02, 0.0
4934, 2.6449813e-02, 4.3000000e-02, 0.0
4935, 2.6500000e-02, 4.3000000e-02, 0.0
4936, 2.7000000e-02, 4.3000000e-02, 0.0
4937, 2.7500000e-02, 4.3000000e-02, 0.0
4938, 2.8000000e-02, 4.3000000e-02, 0.0
4939, 2.8444995e-02, 4.3000000e-02, 0.0
4940, 2.8500000e-02, 4.3000000e-02, 0.0
4941, 2.9000000e-02, 4.3000000e-02, 0.0
4942, 2.9166998e-02, 4.3000000e-02, 0.0
4943, 2.9500000e-02, 4.3000000e-02, 0.0
4944, 3.0000000e-02, 4.3000000e-02, 0.0
4945, 3.0500000e-02, 4.3000000e-02, 0.0
4946, 3.1000000e-02, 4.3000000e-02, 0.0
4947, 3.1500000e-02, 4.3000000e-02, 0.0
4948, 3.1826348e-02, 4.3000000e-02, 0.0
4949, 3.2000000e-02, 4.3000000e-02, 0.0
4950, 3.2158503e-02, 4.3000000e-02, 0.0
4951, 3.2500000e-02, 4.3000000e-02, 0.0
4952, 3.3000000e-02, 4.3000000e-02, 0.0
4953, 3.3500000e-02, 4.3000000e-02, 0.0
4954, 3.4000000e-02, 4.3000000e-02, 0.0
4955, 3.4500000e-02, 4.3000000e-02, 0.0
4956, 3.5000000e-02, 4.3000000e-02, 0.0
4957, 3.5422098e-02, 4.3000000e-02, 0.0
4958, 3.5500000e-02, 4.3000000e-02, 0.0
4959, 3.5818722e-02, 4.3000000e-02, 0.0
4960, 3.6000000e-02, 4.3000000e-02, 0.0
4961, 3.6500000e-02, 4.3000000e-02, 0.0
4962, 3.7000000e-02, 4.3000000e-02, 0.0
4963, 3.7500000e-02, 4.3000000e-02, 0.0
4964, 3.8000000e-02, 4.3000000e-02, 0.0
4965, 3.8500000e-02, 4.3000000e-02, 0.0
4966, 3.8955553e-02, 4.3000000e-02, 0.0
4967, 3.9000000e-02, 4.3000000e-02, 0.0
4968, 3.9500000e-02, 4.3000000e-02, 0.0
4969, 4.0000000e-02, 4.3000000e-02, 0.0
4970, 4.0319382e-02, 4.3000000e-02, 0.0
4971, 4.0500000e-02, 4.3000000e-02, 0.0
4972, 4.1000000e-02, 4.3000000e-02, 0.0
4973, 4.1500000e-02, 4.3000000e-02, 0.0
4974, 4.2000000e-02, 4.3000000e-02, 0.0
4975, 4.2500000e-02, 4.3000000e-02, 0.0
4976, 4.2756638e-02, 4.3000000e-02, 0.0
4977, 4.3000000e-02, 4.3000000e-02, 0.0
4978, 4.3500000e-02, 4.3000000e-02, 0.0
4979, 4.4000000e-02, 4.3000000e-02, 0.0
4980, 4.4500000e-02, 4.3000000e-02, 0.0
4981, 4.5000000e-02, 4.3000000e-02, 0.0
4982, 4.5225587e-02, 4.3000000e-02, 0.0
4983, 4.5500000e-02, 4.3000000e-02, 0.0
4984, 4.6000000e-02, 4.3000000e-02, 0.0
4985, 4.6500000e-02, 4.3000000e-02, 0.0
4986, 4.6823122e-02, 4.3000000e-02, 0.0
4987, 4.7000000e-02, 4.3000000e-02, 0.0
4988, 4.7500000e-02, 4.3000000e-02, 0.0
4989, 4.8000000e-02, 4.3000000e-02, 0.0
4990, 4.8500000e-02, 4.3000000e-02, 0.0
4991, 4.9000000e-02, 4.3000000e-02, 0.0
4992, 4.9500000e-02, 4.3000000e-02, 0.0
4993, 5.0000000e-02, 4.3000000e-02, 0.0
4994, 5.0434600e-02, 4.3000000e-02, 0.0
4995, 5.0500000e-02, 4.3000000e-02, 0.0
4996, 5.1000000e-02, 4.3000000e-02, 0.0
4997, 5.1152776e-02, 4.3000000e-02, 0.0
4998, 5.1500000e-02, 4.3000000e-02, 0.0
4999, 5.2000000e-02, 4.3000000e-02, 0.0
5000, 5.2500000e-02, 4.3000000e-02, 0.0
5001, 5.3000000e-02, 4.3000000e-02, 0.0
5002, 5.3500000e-02, 4.3000000e-02, 0.0
5003, 5.4000000e-02, 4.3000000e-02, 0.0
5004, 5.4500000e-02, 4.3000000e-02, 0.0
5005, 5.5000000e-02, 4.3000000e-02, 0.0
5006, 5.5500000e-02, 4.3000000e-02, 0.0
5007, 5.5743368e-02, 4.3000000e-02, 0.0
5008, 5.5843682e-02, 4.3000000e-02, 0.0
5009, 5.6000000e-02, 4.3000000e-02, 0.0
5010, 5.6500000e-02, 4.3000000e-02, 0.0
5011, 5.7000000e-02, 4.3000000e-02, 0.0
5012, 5.7500000e-02, 4.3000000e-02, 0.0
5013, 5.8000000e-02, 4.3000000e-02, 0.0
5014, 5.8500000e-02, 4.3000000e-02, 0.0
5015, 5.9000000e-02, 4.3000000e-02, 0.0
5016, 5.9500000e-02, 4.3000000e-02, 0.0
5017, 6.0000000e-02, 4.3000000e-02, 0.0
5018, 6.0500000e-02, 4.3000000e-02, 0.0
5019, 6.0592670e-02, 4.3000000e-02, 0.0
5020, 6.1000000e-02, 4.3000000e-02, 0.0
5021, 6.1500000e-02, 4.3000000e-02, 0.0
5022, 6.2000000e-02, 4.3000000e-02, 0.0
5023, 6.2500000e-02, 4.3000000e-02, 0.0
5024, 6.3000000e-02, 4.3000000e-02, 0.0
5025, 6.3500000e-02, 4.3000000e-02, 0.0
5026, 6.4000000e-02, 4.3000000e-02, 0.0
5027, 6.4500000e-02, 4.3000000e-02, 0.0
5028, 6.5000000e-02, 4.3000000e-02, 0.0
5029, 6.5500000e-02, 4.3000000e-02, 0.0
5030, 6.5698449e-02, 4.3000000e-02, 0.0
5031, 8.0000000e-03, 4.3500000e-02, 0.0
5032, 7.5000000e-03, 4.3500000e-02, 0.0
5033, 8.5000000e-03, 4.3500000e-02, 0.0
5034, 9.0000000e-03, 4.3500000e-02, 0.0
5035, 9.5000000e-03, 4.3500000e-02, 0.0
5036, 1.0000000e-02, 4.3500000e-02, 0.0
5037, 1.0500000e-02, 4.3500000e-02, 0.0
5038, 1.1000000e-02, 4.3500000e-02, 0.0
5039, 1.1030671e-02, 4.3500000e-02, 0.0
5040, 1.1500000e-02, 4.3500000e-02, 0.0
5041, 1.2000000e-02, 4.3500000e-02, 0.0
5042, 1.2500000e-02, 4.3500000e-02, 0.0
5043, 1.3000000e-02, 4.3500000e-02, 0.0
5044, 1.3500000e-02, 4.3500000e-02, 0.0
5045, 1.4000000e-02, 4.3500000e-02, 0.0
5046, 1.4500000e-02, 4.3500000e-02, 0.0
5047, 1.4707561e-02, 4.3500000e-02, 0.0
5048, 1.4855500e-02, 4.3500000e-02, 0.0
5049, 1.5000000e-02, 4.3500000e-02, 0.0
5050, 1.5297833e-02, 4.3500000e-02, 0.0
5051, 1.5500000e-02, 4.3500000e-02, 0.0
5052, 1.6000000e-02, 4.3500000e-02, 0.0
5053, 1.6032328e-02, 4.3500000e-02, 0.0
5054, 1.6500000e-02, 4.3500000e-02, 0.0
5055, 1.7000000e-02, 4.3500000e-02, 0.0
5056, 1.7056755e-02, 4.3500000e-02, 0.0
5057, 1.7500000e-02, 4.3500000e-02, 0.0
5058, 1.8000000e-02, 4.3500000e-02, 0.0
5059, 1.8368883e-02, 4.3500000e-02, 0.0
5060, 1.8500000e-02, 4.3500000e-02, 0.0
5061, 1.9000000e-02, 4.3500000e-02, 0.0
5062, 1.9500000e-02, 4.3500000e-02, 0.0
5063, 1.9966484e-02, 4.3500000e-02, 0.0
5064, 2.0000000e-02, 4.3500000e-02, 0.0
5065, 2.0500000e-02, 4.3500000e-02, 0.0
5066, 2.1000000e-02, 4.3500000e-02, 0.0
5067, 2.1500000e-02, 4.3500000e-02, 0.0
5068, 2.1847326e-02, 4.3500000e-02, 0.0
5069, 2.2000000e-02, 4.3500000e-02, 0.0
5070, 2.2500000e-02, 4.3500000e-02, 0.0
5071, 2.2994457e-02, 4.3500000e-02, 0.0
5072, 2.3500000e-02, 4.3500000e-02, 0.0
5073, 2.3926312e-02, 4.3500000e-02, 0.0
5074, 2.4000000e-02, 4.3500000e-02, 0.0
5075, 2.4500000e-02, 4.3500000e-02, 0.0
5076, 2.5000000e-02, 4.3500000e-02, 0.0
5077, 2.5500000e-02, 4.3500000e-02, 0.0
5078, 2.5777404e-02, 4.3500000e-02, 0.0
5079, 2.6000000e-02, 4.3500000e-02, 0.0
5080, 2.6449813e-02, 4.3500000e-02, 0.0
5081, 2.6500000e-02, 4.3500000e-02, 0.0
5082, 2.7000000e-02, 4.3500000e-02, 0.0
5083, 2.7500000e-02, 4.3500000e-02, 0.0
5084, 2.8000000e-02, 4.3500000e-02, 0.0
5085, 2.8444995e-02, 4.3500000e-02, 0.0
5086, 2.8500000e-02, 4.3500000e-02, 0.0
5087, 2.9000000e-02, 4.3500000e-02, 0.0
5088, 2.9166998e-02, 4.3500000e-02, 0.0
5089, 2.9500000e-02, 4.3500000e-02, 0.0
5090, 3.0000000e-02, 4.3500000e-02, 0.0
5091, 3.0500000e-02, 4.3500000e-02, 0.0
5092, 3.1000000e-02, 4.3500000e-02, 0.0
5093, 3.1500000e-02, 4.3500000e-02, 0.0
5094, 3.1826348e-02, 4.3500000e-02, 0.0
5095, 3.2000000e-02, 4.3500000e-02, 0.0
5096, 3.2158503e-02, 4.3500000e-02, 0.0
5097, 3.2500000e-02, 4.3500000e-02, 0.0
5098, 3.3000000e-02, 4.3500000e-02, 0.0
5099, 3.3500000e-02, 4.3500000e-02, 0.0
5100, 3.4000000e-02, 4.3500000e-02, 0.0
5101, 3.4500000e-02, 4.3500000e-02, 0.0
5102, 3.5000000e-02, 4.3500000e-02, 0.0
5103, 3.5422098e-02, 4.3500000e-02, 0.0
5104, 3.5500000e-02, 4.3500000e-02, 0.0
5105, 3.5818722e-02, 4.3500000e-02, 0.0
5106, 3.6000000e-02, 4.3500000e-02, 0.0
5107, 3.6500000e-02, 4.3500000e-02, 0.0
5108, 3.7000000e-02, 4.3500000e-02, 0.0
5109, 3.7500000e-02, 4.3500000e-02, 0.0
5110, 3.8000000e-02, 4.3500000e-02, 0.0
5111, 3.8500000e-02, 4.3500000e-02, 0.0
5112, 3.8955553e-02, 4.3500000e-02, 0.0
5113, 3.9000000e-02, 4.3500000e-02, 0.0
5114, 3.9500000e-02, 4.3500000e-02, 0.0
5115, 4.0000000e-02, 4.3500000e-02, 0.0
5116, 4.0319382e-02, 4.3500000e-02, 0.0
5117, 4.0500000e-02, 4.3500000e-02, 0.0
5118, 4.1000000e-02, 4.3500000e-02, 0.0
5119, 4.1500000e-02, 4.3500000e-02, 0.0
5120, 4.2000000e-02, 4.3500000e-02, 0.0
5121, 4.2500000e-02, 4.3500000e-02, 0.0
5122, 4.2756638e-02, 4.3500000e-02, 0.0
5123, 4.3000000e-02, 4.3500000e-02, 0.0
5124, 4.3500000e-02, 4.3500000e-02, 0.0
5125, 4.4000000e-02, 4.3500000e-02, 0.0
5126, 4.4500000e-02, 4.3500000e-02, 0.0
5127, 4.5000000e-02, 4.3500000e-02, 0.0
5128, 4.5225587e-02, 4.3500000e-02, 0.0
5129, 4.5500000e-02, 4.3500000e-02, 0.0
5130, 4.6000000e-02, 4.3500000e-02, 0.0
5131, 4.6500000e-02, 4.3500000e-02, 0.0
5132, 4.6823122e-02, 4.3500000e-02, 0.0
5133, 4.7000000e-02, 4.3500000e-02, 0.0
5134, 4.7500000e-02, 4.3500000e-02, 0.0
5135, 4.8000000e-02, 4.3500000e-02, 0.0
5136, 4.8500000e-02, 4.3500000e-02, 0.0
5137, 4.9000000e-02, 4.3500000e-02, 0.0
5138, 4.9500000e-02, 4.3500000e-02, 0.0
5139, 5.0000000e-02, 4.3500000e-02, 0.0
5140, 5.0434600e-02, 4.3500000e-02, 0.0
5141, 5.0500000e-02, 4.3500000e-02, 0.0
5142, 5.1000000e-02, 4.3500000e-02, 0.0
5143, 5.1152776e-02, 4.3500000e-02, 0.0
5144, 5.1500000e-02, 4.3500000e-02, 0.0
5145, 5.2000000e-02, 4.3500000e-02, 0.0
5146, 5.2500000e-02, 4.3500000e-02, 0.0
5147, 5.3000000e-02, 4.3500000e-02, 0.0
5148, 5.3500000e-02, 4.3500000e-02, 0.0
5149, 5.4000000e-02, 4.3500000e-02, 0.0
5150, 5.4500000e-02, 4.3500000e-02, 0.0
5151, 5.5000000e-02, 4.3500000e-02, 0.0
5152, 5.5500000e-02, 4.3500000e-02, 0.0
5153, 5.5743368e-02, 4.3500000e-02, 0.0
5154, 5.5843682e-02, 4.3500000e-02, 0.0
5155, 5.6000000e-02, 4.3500000e-02, 0.0
5156, 5.6500000e-02, 4.3500000e-02, 0.0
5157, 5.7000000e-02, 4.3500000e-02, 0.0
5158, 5.7500000e-02, 4.3500000e-02, 0.0
5159, 5.8000000e-02, 4.3500000e-02, 0.0
5160, 5.8500000e-02, 4.3500000e-02, 0.0
5161, 5.9000000e-02, 4.3500000e-02, 0.0
5162, 5.9500000e-02, 4.3500000e-02, 0.0
5163, 6.0000000e-02, 4.3500000e-02, 0.0
5164, 6.0500000e-02, 4.3500000e-02, 0.0
5165, 6.0592670e-02, 4.3500000e-02, 0.0
5166, 6.1000000e-02, 4.3500000e-02, 0.0
5167, 6.1500000e-02, 4.3500000e-02, 0.0
5168, 6.2000000e-02, 4.3500000e-02, 0.0
5169, 6.2500000e-02, 4.3500000e-02, 0.0
5170, 6.3000000e-02, 4.3500000e-02, 0.0
5171, 6.3500000e-02, 4.3500000e-02, 0.0
5172, 6.4000000e-02, 4.3500000e-02, 0.0
5173, 6.4500000e-02, 4.3500000e-02, 0.0
5174, 6.5000000e-02, 4.3500000e-02, 0.0
5175, 6.5500000e-02, 4.3500000e-02, 0.0
5176, 6.5698449e-02, 4.3500000e-02, 0.0
5177, 8.0000000e-03, 4.4000000e-02, 0.0
5178, 7.5000000e-03, 4.4000000e-02, 0.0
5179, 8.5000000e-03, 4.4000000e-02, 0.0
5180, 9.0000000e-03, 4.4000000e-02, 0.0
5181, 9.5000000e-03, 4.4000000e-02, 0.0
5182, 1.0000000e-02, 4.4000000e-02, 0.0
5183, 1.0500000e-02, 4.4000000e-02, 0.0
5184, 1.1000000e-02, 4.4000000e-02, 0.0
5185, 1.1030671e-02, 4.4000000e-02, 0.0
5186, 1.1500000e-02, 4.4000000e-02, 0.0
5187, 1.2000000e-02, 4.4000000e-02, 0.0
5188, 1.2500000e-02, 4.4000000e-02, 0.0
5189, 1.3000000e-02, 4.4000000e-02, 0.0
5190, 1.3500000e-02, 4.4000000e-02, 0.0
5191, 1.4000000e-02, 4.4000000e-02, 0.0
5192, 1.4500000e-02, 4.4000000e-02, 0.0
5193, 1.4707561e-02, 4.4000000e-02, 0.0
5194, 1.4855500e-02, 4.4000000e-02, 0.0
5195, 1.5000000e-02, 4.4000000e-02, 0.0
5196, 1.5297833e-02, 4.4000000e-02, 0.0
5197, 1.5500000e-02, 4.4000000e-02, 0.0
5198, 1.6000000e-02, 4.4000000e-02, 0.0
5199, 1.6032328e-02, 4.4000000e-02, 0.0
5200, 1.6500000e-02, 4.4000000e-02, 0.0
5201, 1.7000000e-02, 4.4000000e-02, 0.0
5202, 1.7056755e-02, 4.4000000e-02, 0.0
5203, 1.7500000e-02, 4.4000000e-02, 0.0
5204, 1.8000000e-02, 4.4000000e-02, 0.0
5205, 1.8368883e-02, 4.4000000e-02, 0.0
5206, 1.8500000e-02, 4.4000000e-02, 0.0
5207, 1.9000000e-02, 4.4000000e-02, 0.0
5208, 1.9500000e-02, 4.4000000e-02, 0.0
5209, 1.9966484e-02, 4.4000000e-02, 0.0
5210, 2.0000000e-02, 4.4000000e-02, 0.0
5211, 2.0500000e-02, 4.4000000e-02, 0.0
5212, 2.1000000e-02, 4.4000000e-02, 0.0
5213, 2.1500000e-02, 4.4000000e-02, 0.0
5214, 2.1847326e-02, 4.4000000e-02, 0.0
5215, 2.2000000e-02, 4.4000000e-02, 0.0
5216, 2.2500000e-02, 4.4000000e-02, 0.0
5217, 2.2994457e-02, 4.4000000e-02, 0.0
5218, 2.3500000e-02, 4.4000000e-02, 0.0
5219, 2.3926312e-02, 4.4000000e-02, 0.0
5220, 2.4000000e-02, 4.4000000e-02, 0.0
5221, 2.4500000e-02, 4.4000000e-02, 0.0
5222, 2.5000000e-02, 4.4000000e-02, 0.0
5223, 2.5500000e-02, 4.4000000e-02, 0.0
5224, 2.5777404e-02, 4.4000000e-02, 0.0
5225, 2.6000000e-02, 4.4000000e-02, 0.0
5226, 2.6449813e-02, 4.4000000e-02, 0.0
5227, 2.6500000e-02, 4.4000000e-02, 0.0
5228, 2.7000000e-02, 4.4000000e-02, 0.0
5229, 2.7500000e-02, 4.4000000e-02, 0.0
5230, 2.8000000e-02, 4.4000000e-02, 0.0
5231, 2.8444995e-02, 4.4000000e-02, 0.0
5232, 2.8500000e-02, 4.4000000e-02, 0.0
5233, 2.9000000e-02, 4.4000000e-02, 0.0
5234, 2.9166998e-02, 4.4000000e-02, 0.0
5235, 2.9500000e-02, 4.4000000e-02, 0.0
5236, 3.0000000e-02, 4.4000000e-02, 0.0
5237, 3.0500000e-02, 4.4000000e-02, 0.0
5238, 3.1000000e-02, 4.4000000e-02, 0.0
5239, 3.1500000e-02, 4.4000000e-02, 0.0
5240, 3.1826348e-02, 4.4000000e-02, 0.0
5241, 3.2000000e-02, 4.4000000e-02, 0.0
5242, 3.2158503e-02, 4.4000000e-02, 0.0
5243, 3.2500000e-02, 4.4000000e-02, 0.0
5244, 3.3000000e-02, 4.4000000e-02, 0.0
5245, 3.3500000e-02, 4.4000000e-02, 0.0
5246, 3.4000000e-02, 4.4000000e-02, 0.0
5247, 3.4500000e-02, 4.4000000e-02, 0.0
5248, 3.5000000e-02, 4.4000000e-02, 0.0
5249, 3.5422098e-02, 4.4000000e-02, 0.0
5250, 3.5500000e-02, 4.4000000e-02, 0.0
5251, 3.5818722e-02, 4.4000000e-02, 0.0
5252, 3.6000000e-02, 4.4000000e-02, 0.0
5253, 3.6500000e-02, 4.4000000e-02, 0.0
5254, 3.7000000e-02, 4.4000000e-02, 0.0
5255, 3.7500000e-02, 4.4000000e-02, 0.0
5256, 3.8000000e-02, 4.4000000e-02, 0.0
5257, 3.8500000e-02, 4.4000000e-02, 0.0
5258, 3.8955553e-02, 4.4000000e-02, 0.0
5259, 3.9000000e-02, 4.4000000e-02, 0.0
5260, 3.9500000e-02, 4.4000000e-02, 0.0
5261, 4.0000000e-02, 4.4000000e-02, 0.0
5262, 4.0319382e-02, 4.4000000e-02, 0.0
5263, 4.0500000e-02, 4.4000000e-02, 0.0
5264, 4.1000000e-02, 4.4000000e-02, 0.0
5265, 4.1500000e-02, 4.4000000e-02, 0.0
5266, 4.2000000e-02, 4.4000000e-02, 0.0
5267, 4.2500000e-02, 4.4000000e-02, 0.0
5268, 4.2756638e-02, 4.4000000e-02, 0.0
5269, 4.3000000e-02, 4.4000000e-02, 0.0
5270, 4.3500000e-02, 4.4000000e-02, 0.0
5271, 4.4000000e-02, 4.4000000e-02, 0.0
5272, 4.4500000e-02, 4.4000000e-02, 0.0
5273, 4.5000000e-02, 4.4000000e-02, 0.0
5274, 4.5225587e-02, 4.4000000e-02, 0.0
5275, 4.5500000e-02, 4.4000000e-02, 0.0
5276, 4.6000000e-02, 4.4000000e-02, 0.0
5277, 4.6500000e-02, 4.4000000e-02, 0.0
5278, 4.6823122e-02, 4.4000000e-02, 0.0
5279, 4.7000000e-02, 4.4000000e-02, 0.0
5280, 4.7500000e-02, 4.4000000e-02, 0.0
5281, 4.8000000e-02, 4.4000000e-02, 0.0
5282, 4.8500000e-02, 4.4000000e-02, 0.0
5283, 4.9000000e-02, 4.4000000e-02, 0.0
5284, 4.9500000e-02, 4.4000000e-02, 0.0
5285, 5.0000000e-02, 4.4000000e-02, 0.0
5286, 5.0434600e-02, 4.4000000e-02, 0.0
5287, 5.0500000e-02, 4.4000000e-02, 0.0
5288, 5.1000000e-02, 4.4000000e-02, 0.0
5289, 5.1152776e-02, 4.4000000e-02, 0.0
5290, 5.1500000e-02, 4.4000000e-02, 0.0
5291, 5.2000000e-02, 4.4000000e-02, 0.0
5292, 5.2500000e-02, 4.4000000e-02, 0.0
5293, 5.3000000e-02, 4.4000000e-02, 0.0
5294, 5.3500000e-02, 4.4000000e-02, 0.0
5295, 5.4000000e-02, 4.4000000e-02, 0.0
5296, 5.4500000e-02, 4.4000000e-02, 0.0
5297, 5.5000000e-02, 4.4000000e-02, 0.0
5298, 5.5500000e-02, 4.4000000e-02, 0.0
5299, 5.5743368e-02, 4.4000000e-02, 0.0
5300, 5.5843682e-02, 4.4000000e-02, 0.0
5301, 5.6000000e-02, 4.4000000e-02, 0.0
5302, 5.6500000e-02, 4.4000000e-02, 0.0
5303, 5.7000000e-02, 4.4000000e-02, 0.0
5304, 5.7500000e-02, 4.4000000e-02, 0.0
5305, 5.8000000e-02, 4.4000000e-02, 0.0
5306, 5.8500000e-02, 4.4000000e-02, 0.0
5307, 5.9000000e-02, 4.4000000e-02, 0.0
5308, 5.9500000e-02, 4.4000000e-02, 0.0
5309, 6.0000000e-02, 4.4000000e-02, 0.0
5310, 6.0500000e-02, 4.4000000e-02, 0.0
5311, 6.0592670e-02, 4.4000000e-02, 0.0
5312, 6.1000000e-02, 4.4000000e-02, 0.0
5313, 6.1500000e-02, 4.4000000e-02, 0.0
5314, 6.2000000e-02, 4.4000000e-02, 0.0
5315, 6.2500000e-02, 4.4000000e-02, 0.0
5316, 6.3000000e-02, 4.4000000e-02, 0.0
5317, 6.3500000e-02, 4.4000000e-02, 0.0
5318, 6.4000000e-02, 4.4000000e-02, 0.0
5319, 6.4500000e-02, 4.4000000e-02, 0.0
5320, 6.5000000e-02, 4.4000000e-02, 0.0
5321, 6.5500000e-02, 4.4000000e-02, 0.0
5322, 6.5698449e-02, 4.4000000e-02, 0.0
5323, 8.0000000e-03, 4.4500000e-02, 0.0
5324, 7.5000000e-03, 4.4500000e-02, 0.0
5325, 8.5000000e-03, 4.4500000e-02, 0.0
5326, 9.0000000e-03, 4.4500000e-02, 0.0
5327, 9.5000000e-03, 4.4500000e-02, 0.0
5328, 1.0000000e-02, 4.4500000e-02, 0.0
5329, 1.0500000e-02, 4.4500000e-02, 0.0
5330, 1.1000000e-02, 4.4500000e-02, 0.0
5331, 1.1030671e-02, 4.4500000e-02, 0.0
5332, 1.1500000e-02, 4.4500000e-02, 0.0
5333, 1.2000000e-02, 4.4500000e-02, 0.0
5334, 1.2500000e-02, 4.4500000e-02, 0.0
5335, 1.3000000e-02, 4.4500000e-02, 0.0
5336, 1.3500000e-02, 4.4500000e-02, 0.0
5337, 1.4000000e-02, 4.4500000e-02, 0.0
5338, 1.4500000e-02, 4.4500000e-02, 0.0
5339, 1.4707561e-02, 4.4500000e-02, 0.0
5340, 1.4855500e-02, 4.4500000e-02, 0.0
5341, 1.5000000e-02, 4.4500000e-02, 0.0
5342, 1.5297833e-02, 4.4500000e-02, 0.0
5343, 1.5500000e-02, 4.4500000e-02, 0.0
5344, 1.6000000e-02, 4.4500000e-02, 0.0
5345, 1.6032328e-02, 4.4500000e-02, 0.0
5346, 1.6500000e-02, 4.4500000e-02, 0.0
5347, 1.7000000e-02, 4.4500000e-02, 0.0
5348, 1.7056755e-02, 4.4500000e-02, 0.0
5349, 1.7500000e-02, 4.4500000e-02, 0.0
5350, 1.8000000e-02, 4.4500000e-02, 0.0
5351, 1.8368883e-02, 4.4500000e-02, 0.0
5352, 1.8500000e-02, 4.4500000e-02, 0.0
5353, 1.9000000e-02, 4.4500000e-02, 0.0
5354, 1.9500000e-02, 4.4500000e-02, 0.0
5355, 1.9966484e-02, 4.4500000e-02, 0.0
5356, 2.0000000e-02, 4.4500000e-02, 0.0
5357, 2.0500000e-02, 4.4500000e-02, 0.0
5358, 2.1000000e-02, 4.4500000e-02, 0.0
5359, 2.1500000e-02, 4.4500000e-02, 0.0
5360, 2.1847326e-02, 4.4500000e-02, 0.0
5361, 2.2000000e-02, 4.4500000e-02, 0.0
5362, 2.2500000e-02, 4.4500000e-02, 0.0
5363, 2.2994457e-02, 4.4500000e-02, 0.0
5364, 2.3500000e-02, 4.4500000e-02, 0.0
5365, 2.3926312e-02, 4.4500000e-02, 0.0
5366, 2.4000000e-02, 4.4500000e-02, 0.0
5367, 2.4500000e-02, 4.4500000e-02, 0.0
5368, 2.5000000e-02, 4.4500000e-02, 0.0
5369, 2.5500000e-02, 4.4500000e-02, 0.0
5370, 2.5777404e-02, 4.4500000e-02, 0.0
5371, 2.6000000e-02, 4.4500000e-02, 0.0
5372, 2.6449813e-02, 4.4500000e-02, 0.0
5373, 2.6500000e-02, 4.4500000e-02, 0.0
5374, 2.7000000e-02, 4.4500000e-02, 0.0
5375, 2.7500000e-02, 4.4500000e-02, 0.0
5376, 2.8000000e-02, 4.4500000e-02, 0.0
5377, 2.8444995e-02, 4.4500000e-02, 0.0
5378, 2.8500000e-02, 4.4500000e-02, 0.0
5379, 2.9000000e-02, 4.4500000e-02, 0.0
5380, 2.9166998e-02, 4.4500000e-02, 0.0
5381, 2.9500000e-02, 4.4500000e-02, 0.0
5382, 3.0000000e-02, 4.4500000e-02, 0.0
5383, 3.0500000e-02, 4.4500000e-02, 0.0
5384, 3.1000000e-02, 4.4500000e-02, 0.0
5385, 3.1500000e-02, 4.4500000e-02, 0.0
5386, 3.1826348e-02, 4.4500000e-02, 0.0
5387, 3.2000000e-02, 4.4500000e-02, 0.0
5388, 3.2158503e-02, 4.4500000e-02, 0.0
5389, 3.2500000e-02, 4.4500000e-02, 0.0
5390, 3.3000000e-02, 4.4500000e-02, 0.0
5391, 3.3500000e-02, 4.4500000e-02, 0.0
5392, 3.4000000e-02, 4.4500000e-02, 0.0
5393, 3.4500000e-02, 4.4500000e-02, 0.0
5394, 3.5000000e-02, 4.4500000e-02, 0.0
5395, 3.5422098e-02, 4.4500000e-02, 0.0
5396, 3.5500000e-02, 4.4500000e-02, 0.0
5397, 3.5818722e-02, 4.4500000e-02, 0.0
5398, 3.6000000e-02, 4.4500000e-02, 0.0
5399, 3.6500000e-02, 4.4500000e-02, 0.0
5400, 3.7000000e-02, 4.4500000e-02, 0.0
5401, 3.7500000e-02, 4.4500000e-02, 0.0
5402, 3.8000000e-02, 4.4500000e-02, 0.0
5403, 3.8500000e-02, 4.4500000e-02, 0.0
5404, 3.8955553e-02, 4.4500000e-02, 0.0
5405, 3.9000000e-02, 4.4500000e-02, 0.0
5406, 3.9500000e-02, 4.4500000e-02, 0.0
5407, 4.0000000e-02, 4.4500000e-02, 0.0
5408, 4.0319382e-02, 4.4500000e-02, 0.0
5409, 4.0500000e-02, 4.4500000e-02, 0.0
5410, 4.1000000e-02, 4.4500000e-02, 0.0
5411, 4.1500000e-02, 4.4500000e-02, 0.0
5412, 4.2000000e-02, 4.4500000e-02, 0.0
5413, 4.2500000e-02, 4.4500000e-02, 0.0
5414, 4.2756638e-02, 4.4500000e-02, 0.0
5415, 4.3000000e-02, 4.4500000e-02, 0.0
5416, 4.3500000e-02, 4.4500000e-02, 0.0
5417, 4.4000000e-02, 4.4500000e-02, 0.0
5418, 4.4500000e-02, 4.4500000e-02, 0.0
5419, 4.5000000e-02, 4.4500000e-02, 0.0
5420, 4.5225587e-02, 4.4500000e-02, 0.0
5421, 4.5500000e-02, 4.4500000e-02, 0.0
5422, 4.6000000e-02, 4.4500000e-02, 0.0
5423, 4.6500000e-02, 4.4500000e-02, 0.0
5424, 4.6823122e-02, 4.4500000e-02, 0.0
5425, 4.7000000e-02, 4.4500000e-02, 0.0
5426, 4.7500000e-02, 4.4500000e-02, 0.0
5427, 4.8000000e-02, 4.4500000e-02, 0.0
5428, 4.8500000e-02, 4.4500000e-02, 0.0
5429, 4.9000000e-02, 4.4500000e-02, 0.0
5430, 4.9500000e-02, 4.4500000e-02, 0.0
5431, 5.0000000e-02, 4.4500000e-02, 0.0
5432, 5.0434600e-02, 4.4500000e-02, 0.0
5433, 5.0500000e-02, 4.4500000e-02, 0.0
5434, 5.1000000e-02, 4.4500000e-02, 0.0
5435, 5.1152776e-02, 4.4500000e-02, 0.0
5436, 5.1500000e-02, 4.4500000e-02, 0.0
5437, 5.2000000e-02, 4.4500000e-02, 0.0
5438, 5.2500000e-02, 4.4500000e-02, 0.0
5439, 5.3000000e-02, 4.4500000e-02, 0.0
5440, 5.3500000e-02, 4.4500000e-02, 0.0
5441, 5.4000000e-02, 4.4500000e-02, 0.0
5442, 5.4500000e-02, 4.4500000e-02, 0.0
5443, 5.5000000e-02, 4.4500000e-02, 0.0
5444, 5.5500000e-02, 4.4500000e-02, 0.0
5445, 5.5743368e-02, 4.4500000e-02, 0.0
5446, 5.5843682e-02, 4.4500000e-02, 0.0
5447, 5.6000000e-02, 4.4500000e-02, 0.0
5448, 5.6500000e-02, 4.4500000e-02, 0.0
5449, 5.7000000e-02, 4.4500000e-02, 0.0
5450, 5.7500000e-02, 4.4500000e-02, 0.0
5451, 5.8000000e-02, 4.4500000e-02, 0.0
5452, 5.8500000e-02, 4.4500000e-02, 0.0
5453, 5.9000000e-02, 4.4500000e-02, 0.0
5454, 5.9500000e-02, 4.4500000e-02, 0.0
5455, 6.0000000e-02, 4.4500000e-02, 0.0
5456, 6.0500000e-02, 4.4500000e-02, 0.0
5457, 6.0592670e-02, 4.4500000e-02, 0.0
5458, 6.1000000e-02, 4.4500000e-02, 0.0
5459, 6.1500000e-02, 4.4500000e-02, 0.0
5460, 6.2000000e-02, 4.4500000e-02, 0.0
5461, 6.2500000e-02, 4.4500000e-02, 0.0
5462, 6.3000000e-02, 4.4500000e-02, 0.0
5463, 6.3500000e-02, 4.4500000e-02, 0.0
5464, 6.4000000e-02, 4.4500000e-02, 0.0
5465, 6.4500000e-02, 4.4500000e-02, 0.0
5466, 6.5000000e-02, 4.4500000e-02, 0.0
5467, 6.5500000e-02, 4.4500000e-02, 0.0
5468, 6.5698449e-02, 4.4500000e-02, 0.0
5469, 8.0000000e-03, 4.5000000e-02, 0.0
5470, 7.5000000e-03, 4.5000000e-02, 0.0
5471, 8.5000000e-03, 4.5000000e-02, 0.0
5472, 9.0000000e-03, 4.5000000e-02, 0.0
5473, 9.5000000e-03, 4.5000000e-02, 0.0
5474, 1.0000000e-02, 4.5000000e-02, 0.0
5475, 1.0500000e-02, 4.5000000e-02, 0.0
5476, 1.1000000e-02, 4.5000000e-02, 0.0
5477, 1.1030671e-02, 4.5000000e-02, 0.0
5478, 1.1500000e-02, 4.5000000e-02, 0.0
5479, 1.2000000e-02, 4.5000000e-02, 0.0
5480, 1.2500000e-02, 4.5000000e-02, 0.0
5481, 1.3000000e-02, 4.5000000e-02, 0.0
5482, 1.3500000e-02, 4.5000000e-02, 0.0
5483, 1.4000000e-02, 4.5000000e-02, 0.0
5484, 1.4500000e-02, 4.5000000e-02, 0.0
5485, 1.4707561e-02, 4.5000000e-02, 0.0
5486, 1.4855500e-02, 4.5000000e-02, 0.0
5487, 1.5000000e-02, 4.5000000e-02, 0.0
5488, 1.5297833e-02, 4.5000000e-02, 0.0
5489, 1.5500000e-02, 4.5000000e-02, 0.0
5490, 1.6000000e-02, 4.5000000e-02, 0.0
5491, 1.6032328e-02, 4.5000000e-02, 0.0
5492, 1.6500000e-02, 4.5000000e-02, 0.0
5493, 1.7000000e-02, 4.5000000e-02, 0.0
5494, 1.7056755e-02, 4.5000000e-02, 0.0
5495, 1.7500000e-02, 4.5000000e-02, 0.0
5496, 1.8000000e-02, 4.5000000e-02, 0.0
5497, 1.8368883e-02, 4.5000000e-02, 0.0
5498, 1.8500000e-02, 4.5000000e-02, 0.0
5499, 1.9000000e-02, 4.5000000e-02, 0.0
5500, 1.9500000e-02, 4.5000000e-02, 0.0
5501, 1.9966484e-02, 4.5000000e-02, 0.0
5502, 2.0000000e-02, 4.5000000e-02, 0.0
5503, 2.0500000e-02, 4.5000000e-02, 0.0
5504, 2.1000000e-02, 4.5000000e-02, 0.0
5505, 2.1500000e-02, 4.5000000e-02, 0.0
5506, 2.1847326e-02, 4.5000000e-02, 0.0
5507, 2.2000000e-02, 4.5000000e-02, 0.0
5508, 2.2500000e-02, 4.5000000e-02, 0.0
5509, 2.2994457e-02, 4.5000000e-02, 0.0
5510, 2.3500000e-02, 4.5000000e-02, 0.0
5511, 2.3926312e-02, 4.5000000e-02, 0.0
5512, 2.4000000e-02, 4.5000000e-02, 0.0
5513, 2.4500000e-02, 4.5000000e-02, 0.0
5514, 2.5000000e-02, 4.5000000e-02, 0.0
5515, 2.5500000e-02, 4.5000000e-02, 0.0
5516, 2.5777404e-02, 4.5000000e-02, 0.0
5517, 2.6000000e-02, 4.5000000e-02, 0.0
5518, 2.6449813e-02, 4.5000000e-02, 0.0
5519, 2.6500000e-02, 4.5000000e-02, 0.0
5520, 2.7000000e-02, 4.5000000e-02, 0.0
5521, 2.7500000e-02, 4.5000000e-02, 0.0
5522, 2.8000000e-02, 4.5000000e-02, 0.0
5523, 2.8444995e-02, 4.5000000e-02, 0.0
5524, 2.8500000e-02, 4.5000000e-02, 0.0
5525, 2.9000000e-02, 4.5000000e-02, 0.0
5526, 2.9166998e-02, 4.5000000e-02, 0.0
5527, 2.9500000e-02, 4.5000000e-02, 0.0
5528, 3.0000000e-02, 4.5000000e-02, 0.0
5529, 3.0500000e-02, 4.5000000e-02, 0.0
5530, 3.1000000e-02, 4.5000000e-02, 0.0
5531, 3.1500000e-02, 4.5000000e-02, 0.0
5532, 3.1826348e-02, 4.5000000e-02, 0.0
5533, 3.2000000e-02, 4.5000000e-02, 0.0
5534, 3.2158503e-02, 4.5000000e-02, 0.0
5535, 3.2500000e-02, 4.5000000e-02, 0.0
5536, 3.3000000e-02, 4.5000000e-02, 0.0
5537, 3.3500000e-02, 4.5000000e-02, 0.0
5538, 3.4000000e-02, 4.5000000e-02, 0.0
5539, 3.4500000e-02, 4.5000000e-02, 0.0
5540, 3.5000000e-02, 4.5000000e-02, 0.0
5541, 3.5422098e-02, 4.5000000e-02, 0.0
5542, 3.5500000e-02, 4.5000000e-02, 0.0
5543, 3.5818722e-02, 4.5000000e-02, 0.0
5544, 3.6000000e-02, 4.5000000e-02, 0.0
5545, 3.6500000e-02, 4.5000000e-02, 0.0
5546, 3.7000000e-02, 4.5000000e-02, 0.0
5547, 3.7500000e-02, 4.5000000e-02, 0.0
5548, 3.8000000e-02, 4.5000000e-02, 0.0
5549, 3.8500000e-02, 4.5000000e-02, 0.0
5550, 3.8955553e-02, 4.5000000e-02, 0.0
5551, 3.9000000e-02, 4.5000000e-02, 0.0
5552, 3.9500000e-02, 4.5000000e-02, 0.0
5553, 4.0000000e-02, 4.5000000e-02, 0.0
5554, 4.0319382e-02, 4.5000000e-02, 0.0
5555, 4.0500000e-02, 4.5000000e-02, 0.0
5556, 4.1000000e-02, 4.5000000e-02, 0.0
5557, 4.1500000e-02, 4.5000000e-02, 0.0
5558, 4.2000000e-02, 4.5000000e-02, 0.0
5559, 4.2500000e-02, 4.5000000e-02, 0.0
5560, 4.2756638e-02, 4.5000000e-02, 0.0
5561, 4.3000000e-02, 4.5000000e-02, 0.0
5562, 4.3500000e-02, 4.5000000e-02, 0.0
5563, 4.4000000e-02, 4.5000000e-02, 0.0
5564, 4.4500000e-02, 4.5000000e-02, 0.0
5565, 4.5000000e-02, 4.5000000e-02, 0.0
5566, 4.5225587e-02, 4.5000000e-02, 0.0
5567, 4.5500000e-02, 4.5000000e-02, 0.0
5568, 4.6000000e-02, 4.5000000e-02, 0.0
5569, 4.6500000e-02, 4.5000000e-02, 0.0
5570, 4.6823122e-02, 4.5000000e-02, 0.0
5571, 4.7000000e-02, 4.5000000e-02, 0.0
5572, 4.7500000e-02, 4.5000000e-02, 0.0
5573, 4.8000000e-02, 4.5000000e-02, 0.0
5574, 4.8500000e-02, 4.5000000e-02, 0.0
5575, 4.9000000e-02, 4.5000000e-02, 0.0
5576, 4.9500000e-02, 4.5000000e-02, 0.0
5577, 5.0000000e-02, 4.5000000e-02, 0.0
5578, 5.0434600e-02, 4.5000000e-02, 0.0
5579, 5.0500000e-02, 4.5000000e-02, 0.0
5580, 5.1000000e-02, 4.5000000e-02, 0.0
5581, 5.1152776e-02, 4.5000000e-02, 0.0
5582, 5.1500000e-02, 4.5000000e-02, 0.0
5583, 5.2000000e-02, 4.5000000e-02, 0.0
5584, 5.2500000e-02, 4.5000000e-02, 0.0
5585, 5.3000000e-02, 4.5000000e-02, 0.0
5586, 5.3500000e-02, 4.5000000e-02, 0.0
5587, 5.4000000e-02, 4.5000000e-02, 0.0
5588, 5.4500000e-02, 4.5000000e-02, 0.0
5589, 5.5000000e-02, 4.5000000e-02, 0.0
5590, 5.5500000e-02, 4.5000000e-02, 0.0
5591, 5.5743368e-02, 4.5000000e-02, 0.0
5592, 5.5843682e-02, 4.5000000e-02, 0.0
5593, 5.6000000e-02, 4.5000000e-02, 0.0
5594, 5.6500000e-02, 4.5000000e-02, 0.0
5595, 5.7000000e-02, 4.5000000e-02, 0.0
5596, 5.7500000e-02, 4.5000000e-02, 0.0
5597, 5.8000000e-02, 4.5000000e-02, 0.0
5598, 5.8500000e-02, 4.5000000e-02, 0.0
5599, 5.9000000e-02, 4.5000000e-02, 0.0
5600, 5.9500000e-02, 4.5000000e-02, 0.0
5601, 6.0000000e-02, 4.5000000e-02, 0.0
5602, 6.0500000e-02, 4.5000000e-02, 0.0
5603, 6.0592670e-02, 4.5000000e-02, 0.0
5604, 6.1000000e-02, 4.5000000e-02, 0.0
5605, 6.1500000e-02, 4.5000000e-02, 0.0
5606, 6.2000000e-02, 4.5000000e-02, 0.0
5607, 6.2500000e-02, 4.5000000e-02, 0.0
5608, 6.3000000e-02, 4.5000000e-02, 0.0
5609, 6.3500000e-02, 4.5000000e-02, 0.0
5610, 6.4000000e-02, 4.5000000e-02, 0.0
5611, 6.4500000e-02, 4.5000000e-02, 0.0
5612, 6.5000000e-02, 4.5000000e-02, 0.0
5613, 6.5500000e-02, 4.5000000e-02, 0.0
5614, 6.5698449e-02, 4.5000000e-02, 0.0
5615, 8.0000000e-03, 4.5500000e-02, 0.0
5616, 7.5000000e-03, 4.5500000e-02, 0.0
5617, 8.5000000e-03, 4.5500000e-02, 0.0
5618, 9.0000000e-03, 4.5500000e-02, 0.0
5619, 9.5000000e-03, 4.5500000e-02, 0.0
5620, 1.0000000e-02, 4.5500000e-02, 0.0
5621, 1.0500000e-02, 4.5500000e-02, 0.0
5622, 1.1000000e-02, 4.5500000e-02, 0.0
5623, 1.1030671e-02, 4.5500000e-02, 0.0
5624, 1.1500000e-02, 4.5500000e-02, 0.0
5625, 1.2000000e-02, 4.5500000e-02, 0.0
5626, 1.2500000e-02, 4.5500000e-02, 0.0
5627, 1.3000000e-02, 4.5500000e-02, 0.0
5628, 1.3500000e-02, 4.5500000e-02, 0.0
5629, 1.4000000e-02, 4.5500000e-02, 0.0
5630, 1.4500000e-02, 4.5500000e-02, 0.0
5631, 1.4707561e-02, 4.5500000e-02, 0.0
5632, 1.4855500e-02, 4.5500000e-02, 0.0
5633, 1.5000000e-02, 4.5500000e-02, 0.0
5634, 1.5297833e-02, 4.5500000e-02, 0.0
5635, 1.5500000e-02, 4.5500000e-02, 0.0
5636, 1.6000000e-02, 4.5500000e-02, 0.0
5637, 1.6032328e-02, 4.5500000e-02, 0.0
5638, 1.6500000e-02, 4.5500000e-02, 0.0
5639, 1.7000000e-02, 4.5500000e-02, 0.0
5640, 1.7056755e-02, 4.5500000e-02, 0.0
5641, 1.7500000e-02, 4.5500000e-02, 0.0
5642, 1.8000000e-02, 4.5500000e-02, 0.0
5643, 1.8368883e-02, 4.5500000e-02, 0.0
5644, 1.8500000e-02, 4.5500000e-02, 0.0
5645, 1.9000000e-02, 4.5500000e-02, 0.0
5646, 1.9500000e-02, 4.5500000e-02, 0.0
5647, 1.9966484e-02, 4.5500000e-02, 0.0
5648, 2.0000000e-02, 4.5500000e-02, 0.0
5649, 2.0500000e-02, 4.5500000e-02, 0.0
5650, 2.1000000e-02, 4.5500000e-02, 0.0
5651, 2.1500000e-02, 4.5500000e-02, 0.0
5652, 2.1847326e-02, 4.5500000e-02, 0.0
5653, 2.2000000e-02, 4.5500000e-02, 0.0
5654, 2.2500000e-02, 4.5500000e-02, 0.0
5655, 2.2994457e-02, 4.5500000e-02, 0.0
5656, 2.3500000e-02, 4.5500000e-02, 0.0
5657, 2.3926312e-02, 4.5500000e-02, 0.0
5658, 2.4000000e-02, 4.5500000e-02, 0.0
5659, 2.4500000e-02, 4.5500000e-02, 0.0
5660, 2.5000000e-02, 4.5500000e-02, 0.0
5661, 2.5500000e-02, 4.5500000e-02, 0.0
5662, 2.5777404e-02, 4.5500000e-02, 0.0
5663, 2.6000000e-02, 4.5500000e-02, 0.0
5664, 2.6449813e-02, 4.5500000e-02, 0.0
5665, 2.6500000e-02, 4.5500000e-02, 0.0
5666, 2.7000000e-02, 4.5500000e-02, 0.0
5667, 2.7500000e-02, 4.5500000e-02, 0.0
5668, 2.8000000e-02, 4.5500000e-02, 0.0
5669, 2.8444995e-02, 4.5500000e-02, 0.0
5670, 2.8500000e-02, 4.5500000e-02, 0.0
5671, 2.9000000e-02, 4.5500000e-02, 0.0
5672, 2.9166998e-02, 4.5500000e-02, 0.0
5673, 2.9500000e-02, 4.5500000e-02, 0.0
5674, 3.0000000e-02, 4.5500000e-02, 0.0
5675, 3.0500000e-02, 4.5500000e-02, 0.0
5676, 3.1000000e-02, 4.5500000e-02, 0.0
5677, 3.1500000e-02, 4.5500000e-02, 0.0
5678, 3.1826348e-02, 4.5500000e-02, 0.0
5679, 3.2000000e-02, 4.5500000e-02, 0.0
5680, 3.2158503e-02, 4.5500000e-02, 0.0
5681, 3.2500000e-02, 4.5500000e-02, 0.0
5682, 3.3000000e-02, 4.5500000e-02, 0.0
5683, 3.3500000e-02, 4.5500000e-02, 0.0
5684, 3.4000000e-02, 4.5500000e-02, 0.0
5685, 3.4500000e-02, 4.5500000e-02, 0.0
5686, 3.5000000e-02, 4.5500000e-02, 0.0
5687, 3.5422098e-02, 4.5500000e-02, 0.0
5688, 3.5500000e-02, 4.5500000e-02, 0.0
5689, 3.5818722e-02, 4.5500000e-02, 0.0
5690, 3.6000000e-02, 4.5500000e-02, 0.0
5691, 3.6500000e-02, 4.5500000e-02, 0.0
5692, 3.7000000e-02, 4.5500000e-02, 0.0
5693, 3.7500000e-02, 4.5500000e-02, 0.0
5694, 3.8000000e-02, 4.5500000e-02, 0.0
5695, 3.8500000e-02, 4.5500000e-02, 0.0
5696, 3.8955553e-02, 4.5500000e-02, 0.0
5697, 3.9000000e-02, 4.5500000e-02, 0.0
5698, 3.9500000e-02, 4.5500000e-02, 0.0
5699, 4.0000000e-02, 4.5500000e-02, 0.0
5700, 4.0319382e-02, 4.5500000e-02, 0.0
5701, 4.0500000e-02, 4.5500000e-02, 0.0
5702, 4.1000000e-02, 4.5500000e-02, 0.0
5703, 4.1500000e-02, 4.5500000e-02, 0.0
5704, 4.2000000e-02, 4.5500000e-02, 0.0
5705, 4.2500000e-02, 4.5500000e-02, 0.0
5706, 4.2756638e-02, 4.5500000e-02, 0.0
5707, 4.3000000e-02, 4.5500000e-02, 0.0
5708, 4.3500000e-02, 4.5500000e-02, 0.0
5709, 4.4000000e-02, 4.5500000e-02, 0.0
5710, 4.4500000e-02, 4.5500000e-02, 0.0
5711, 4.5000000e-02, 4.5500000e-02, 0.0
5712, 4.5225587e-02, 4.5500000e-02, 0.0
5713, 4.5500000e-02, 4.5500000e-02, 0.0
5714, 4.6000000e-02, 4.5500000e-02, 0.0
5715, 4.6500000e-02, 4.5500000e-02, 0.0
5716, 4.6823122e-02, 4.5500000e-02, 0.0
5717, 4.7000000e-02, 4.5500000e-02, 0.0
5718, 4.7500000e-02, 4.5500000e-02, 0.0
5719, 4.8000000e-02, 4.5500000e-02, 0.0
5720, 4.8500000e-02, 4.5500000e-02, 0.0
5721, 4.9000000e-02, 4.5500000e-02, 0.0
5722, 4.9500000e-02, 4.5500000e-02, 0.0
5723, 5.0000000e-02, 4.5500000e-02, 0.0
5724, 5.0434600e-02, 4.5500000e-02, 0.0
5725, 5.0500000e-02, 4.5500000e-02, 0.0
5726, 5.1000000e-02, 4.5500000e-02, 0.0
5727, 5.1152776e-02, 4.5500000e-02, 0.0
5728, 5.1500000e-02, 4.5500000e-02, 0.0
5729, 5.2000000e-02, 4.5500000e-02, 0.0
5730, 5.2500000e-02, 4.5500000e-02, 0.0
5731, 5.3000000e-02, 4.5500000e-02, 0.0
5732, 5.3500000e-02, 4.5500000e-02, 0.0
5733, 5.4000000e-02, 4.5500000e-02, 0.0
5734, 5.4500000e-02, 4.5500000e-02, 0.0
5735, 5.5000000e-02, 4.5500000e-02, 0.0
5736, 5.5500000e-02, 4.5500000e-02, 0.0
5737, 5.5743368e-02, 4.5500000e-02, 0.0
5738, 5.5843682e-02, 4.5500000e-02, 0.0
5739, 5.6000000e-02, 4.5500000e-02, 0.0
5740, 5.6500000e-02, 4.5500000e-02, 0.0
5741, 5.7000000e-02, 4.5500000e-02, 0.0
5742, 5.7500000e-02, 4.5500000e-02, 0.0
5743, 5.8000000e-02, 4.5500000e-02, 0.0
5744, 5.8500000e-02, 4.5500000e-02, 0.0
5745, 5.9000000e-02, 4.5500000e-02, 0.0
5746, 5.9500000e-02, 4.5500000e-02, 0.0
5747, 6.0000000e-02, 4.5500000e-02, 0.0
5748, 6.0500000e-02, 4.5500000e-02, 0.0
5749, 6.0592670e-02, 4.5500000e-02, 0.0
5750, 6.1000000e-02, 4.5500000e-02, 0.0
5751, 6.1500000e-02, 4.5500000e-02, 0.0
5752, 6.2000000e-02, 4.5500000e-02, 0.0
5753, 6.2500000e-02, 4.5500000e-02, 0.0
5754, 6.3000000e-02, 4.5500000e-02, 0.0
5755, 6.3500000e-02, 4.5500000e-02, 0.0
5756, 6.4000000e-02, 4.5500000e-02, 0.0
5757, 6.4500000e-02, 4.5500000e-02, 0.0
5758, 6.5000000e-02, 4.5500000e-02, 0.0
5759, 6.5500000e-02, 4.5500000e-02, 0.0
5760, 6.5698449e-02, 4.5500000e-02, 0.0
5761, 8.0000000e-03, 4.5988914e-02, 0.0
5762, 7.5000000e-03, 4.5988914e-02, 0.0
5763, 8.5000000e-03, 4.5988914e-02, 0.0
5764, 9.0000000e-03, 4.5988914e-02, 0.0
5765, 9.5000000e-03, 4.5988914e-02, 0.0
5766, 1.0000000e-02, 4.5988914e-02, 0.0
5767, 1.0500000e-02, 4.5988914e-02, 0.0
5768, 1.1000000e-02, 4.5988914e-02, 0.0
5769, 1.1030671e-02, 4.5988914e-02, 0.0
5770, 1.1500000e-02, 4.5988914e-02, 0.0
5771, 1.2000000e-02, 4.5988914e-02, 0.0
5772, 1.2500000e-02, 4.5988914e-02, 0.0
5773, 1.3000000e-02, 4.5988914e-02, 0.0
5774, 1.3500000e-02, 4.5988914e-02, 0.0
5775, 1.4000000e-02, 4.5988914e-02, 0.0
5776, 1.4500000e-02, 4.5988914e-02, 0.0
5777, 1.4707561e-02, 4.5988914e-02, 0.0
5778, 1.4855500e-02, 4.5988914e-02, 0.0
5779, 1.5000000e-02, 4.5988914e-02, 0.0
5780, 1.5297833e-02, 4.5988914e-02, 0.0
5781, 1.5500000e-02, 4.5988914e-02, 0.0
5782, 1.6000000e-02, 4.5988914e-02, 0.0
5783, 1.6032328e-02, 4.5988914e-02, 0.0
5784, 1.6500000e-02, 4.5988914e-02, 0.0
5785, 1.7000000e-02, 4.5988914e-02, 0.0
5786, 1.7056755e-02, 4.5988914e-02, 0.0
5787, 1.7500000e-02, 4.5988914e-02, 0.0
5788, 1.8000000e-02, 4.5988914e-02, 0.0
5789, 1.8368883e-02, 4.5988914e-02, 0.0
5790, 1.8500000e-02, 4.5988914e-02, 0.0
5791, 1.9000000e-02, 4.5988914e-02, 0.0
5792, 1.9500000e-02, 4.5988914e-02, 0.0
5793, 1.9966484e-02, 4.5988914e-02, 0.0
5794, 2.0000000e-02, 4.5988914e-02, 0.0
5795, 2.0500000e-02, 4.5988914e-02, 0.0
5796, 2.1000000e-02, 4.5988914e-02, 0.0
5797, 2.1500000e-02, 4.5988914e-02, 0.0
5798, 2.1847326e-02, 4.5988914e-02, 0.0
5799, 2.2000000e-02, 4.5988914e-02, 0.0
5800, 2.2500000e-02, 4.5988914e-02, 0.0
5801, 2.2994457e-02, 4.5988914e-02, 0.0
5802, 2.3500000e-02, 4.5988914e-02, 0.0
5803, 2.3926312e-02, 4.5988914e-02, 0.0
5804, 2.4000000e-02, 4.5988914e-02, 0.0
5805, 2.4500000e-02, 4.5988914e-02, 0.0
5806, 2.5000000e-02, 4.5988914e-02, 0.0
5807, 2.5500000e-02, 4.5988914e-02, 0.0
5808, 2.5777404e-02, 4.5988914e-02, 0.0
5809, 2.6000000e-02, 4.5988914e-02, 0.0
5810, 2.6449813e-02, 4.5988914e-02, 0.0
5811, 2.6500000e-02, 4.5988914e-02, 0.0
5812, 2.7000000e-02, 4.5988914e-02, 0.0
5813, 2.7500000e-02, 4.5988914e-02, 0.0
5814, 2.8000000e-02, 4.5988914e-02, 0.0
5815, 2.8444995e-02, 4.5988914e-02, 0.0
5816, 2.8500000e-02, 4.5988914e-02, 0.0
5817, 2.9000000e-02, 4.5988914e-02, 0.0
5818, 2.9166998e-02, 4.5988914e-02, 0.0
5819, 2.9500000e-02, 4.5988914e-02, 0.0
5820, 3.0000000e-02, 4.5988914e-02, 0.0
5821, 3.0500000e-02, 4.5988914e-02, 0.0
5822, 3.1000000e-02, 4.5988914e-02, 0.0
5823, 3.1500000e-02, 4.5988914e-02, 0.0
5824, 3.1826348e-02, 4.5988914e-02, 0.0
5825, 3.2000000e-02, 4.5988914e-02, 0.0
5826, 3.2158503e-02, 4.5988914e-02, 0.0
5827, 3.2500000e-02, 4.5988914e-02, 0.0
5828, 3.3000000e-02, 4.5988914e-02, 0.0
5829, 3.3500000e-02, 4.5988914e-02, 0.0
5830, 3.4000000e-02, 4.5988914e-02, 0.0
5831, 3.4500000e-02, 4.5988914e-02, 0.0
5832, 3.5000000e-02, 4.5988914e-02, 0.0
5833, 3.5422098e-02, 4.5988914e-02, 0.0
5834, 3.5500000e-02, 4.5988914e-02, 0.0
5835, 3.5818722e-02, 4.5988914e-02, 0.0
5836, 3.6000000e-02, 4.5988914e-02, 0.0
5837, 3.6500000e-02, 4.5988914e-02, 0.0
5838, 3.7000000e-02, 4.5988914e-02, 0.0
5839, 3.7500000e-02, 4.5988914e-02, 0.0
5840, 3.8000000e-02, 4.5988914e-02, 0.0
5841, 3.8500000e-02, 4.5988914e-02, 0.0
5842, 3.8955553e-02, 4.5988914e-02, 0.0
5843, 3.9000000e-02, 4.5988914e-02, 0.0
5844, 3.9500000e-02, 4.5988914e-02, 0.0
5845, 4.0000000e-02, 4.5988914e-02, 0.0
5846, 4.0319382e-02, 4.5988914e-02, 0.0
5847, 4.0500000e-02, 4.5988914e-02, 0.0
5848, 4.1000000e-02, 4.5988914e-02, 0.0
5849, 4.1500000e-02, 4.5988914e-02, 0.0
5850, 4.2000000e-02, 4.5988914e-02, 0.0
5851, 4.2500000e-02, 4.5988914e-02, 0.0
5852, 4.2756638e-02, 4.5988914e-02, 0.0
5853, 4.3000000e-02, 4.5988914e-02, 0.0
5854, 4.3500000e-02, 4.5988914e-02, 0.0
5855, 4.4000000e-02, 4.5988914e-02, 0.0
5856, 4.4500000e-02, 4.5988914e-02, 0.0
5857, 4.5000000e-02, 4.5988914e-02, 0.0
5858, 4.5225587e-02, 4.5988914e-02, 0.0
5859, 4.5500000e-02, 4.5988914e-02, 0.0
5860, 4.6000000e-02, 4.5988914e-02, 0.0
5861, 4.6500000e-02, 4.5988914e-02, 0.0
5862, 4.6823122e-02, 4.5988914e-02, 0.0
5863, 4.7000000e-02, 4.5988914e-02, 0.0
5864, 4.7500000e-02, 4.5988914e-02, 0.0
5865, 4.8000000e-02, 4.5988914e-02, 0.0
5866, 4.8500000e-02, 4.5988914e-02, 0.0
5867, 4.9000000e-02, 4.5988914e-02, 0.0
5868, 4.9500000e-02, 4.5988914e-02, 0.0
5869, 5.0000000e-02, 4.5988914e-02, 0.0
5870, 5.0434600e-02, 4.5988914e-02, 0.0
5871, 5.0500000e-02, 4.5988914e-02, 0.0
5872, 5.1000000e-02, 4.5988914e-02, 0.0
5873, 5.1152776e-02, 4.5988914e-02, 0.0
5874, 5.1500000e-02, 4.5988914e-02, 0.0
5875, 5.2000000e-02, 4.5988914e-02, 0.0
5876, 5.2500000e-02, 4.5988914e-02, 0.0
5877, 5.3000000e-02, 4.5988914e-02, 0.0
5878, 5.3500000e-02, 4.5988914e-02, 0.0
5879, 5.4000000e-02, 4.5988914e-02, 0.0
5880, 5.4500000e-02, 4.5988914e-02, 0.0
5881, 5.5000000e-02, 4.5988914e-02, 0.0
5882, 5.5500000e-02, 4.5988914e-02, 0.0
5883, 5.5743368e-02, 4.5988914e-02, 0.0
5884, 5.5843682e-02, 4.5988914e-02, 0.0
5885, 5.6000000e-02, 4.5988914e-02, 0.0
5886, 5.6500000e-02, 4.5988914e-02, 0.0
5887, 5.7000000e-02, 4.5988914e-02, 0.0
5888, 5.7500000e-02, 4.5988914e-02, 0.0
5889, 5.8000000e-02, 4.5988914e-02, 0.0
5890, 5.8500000e-02, 4.5988914e-02, 0.0
5891, 5.9000000e-02, 4.5988914e-02, 0.0
5892, 5.9500000e-02, 4.5988914e-02, 0.0
5893, 6.0000000e-02, 4.5988914e-02, 0.0
5894, 6.0500000e-02, 4.5988914e-02, 0.0
5895, 6.0592670e-02, 4.5988914e-02, 0.0
5896, 6.1000000e-02, 4.5988914e-02, 0.0
5897, 6.1500000e-02, 4.5988914e-02, 0.0
5898, 6.2000000e-02, 4.5988914e-02, 0.0
5899, 6.2500000e-02, 4.5988914e-02, 0.0
5900, 6.3000000e-02, 4.5988914e-02, 0.0
5901, 6.3500000e-02, 4.5988914e-02, 0.0
5902, 6.4000000e-02, 4.5988914e-02, 0.0
5903, 6.4500000e-02, 4.5988914e-02, 0.0
5904, 6.5000000e-02, 4.5988914e-02, 0.0
5905, 6.5500000e-02, 4.5988914e-02, 0.0
5906, 6.5698449e-02, 4.5988914e-02, 0.0
5907, 8.0000000e-03, 4.6000000e-02, 0.0
5908, 7.5000000e-03, 4.6000000e-02, 0.0
5909, 8.5000000e-03, 4.6000000e-02, 0.0
5910, 9.0000000e-03, 4.6000000e-02, 0.0
5911, 9.5000000e-03, 4.6000000e-02, 0.0
5912, 1.0000000e-02, 4.6000000e-02, 0.0
5913, 1.0500000e-02, 4.6000000e-02, 0.0
5914, 1.1000000e-02, 4.6000000e-02, 0.0
5915, 1.1030671e-02, 4.6000000e-02, 0.0
5916, 1.1500000e-02, 4.6000000e-02, 0.0
5917, 1.2000000e-02, 4.6000000e-02, 0.0
5918, 1.2500000e-02, 4.6000000e-02, 0.0
5919, 1.3000000e-02, 4.6000000e-02, 0.0
5920, 1.3500000e-02, 4.6000000e-02, 0.0
5921, 1.4000000e-02, 4.6000000e-02, 0.0
5922, 1.4500000e-02, 4.6000000e-02, 0.0
5923, 1.4707561e-02, 4.6000000e-02, 0.0
5924, 1.4855500e-02, 4.6000000e-02, 0.0
5925, 1.5000000e-02, 4.6000000e-02, 0.0
5926, 1.5297833e-02, 4.6000000e-02, 0.0
5927, 1.5500000e-02, 4.6000000e-02, 0.0
5928, 1.6000000e-02, 4.6000000e-02, 0.0
5929, 1.6032328e-02, 4.6000000e-02, 0.0
5930, 1.6500000e-02, 4.6000000e-02, 0.0
5931, 1.7000000e-02, 4.6000000e-02, 0.0
5932, 1.7056755e-02, 4.6000000e-02, 0.0
5933, 1.7500000e-02, 4.6000000e-02, 0.0
5934, 1.8000000e-02, 4.6000000e-02, 0.0
5935, 1.8368883e-02, 4.6000000e-02, 0.0
5936, 1.8500000e-02, 4.6000000e-02, 0.0
5937, 1.9000000e-02, 4.6000000e-02, 0.0
5938, 1.9500000e-02, 4.6000000e-02, 0.0
5939, 1.9966484e-02, 4.6000000e-02, 0.0
5940, 2.0000000e-02, 4.6000000e-02, 0.0
5941, 2.0500000e-02, 4.6000000e-02, 0.0
5942, 2.1000000e-02, 4.6000000e-02, 0.0
5943, 2.1500000e-02, 4.6000000e-02, 0.0
5944, 2.1847326e-02, 4.6000000e-02, 0.0
5945, 2.2000000e-02, 4.6000000e-02, 0.0
5946, 2.2500000e-02, 4.6000000e-02, 0.0
5947, 2.2994457e-02, 4.6000000e-02, 0.0
5948, 2.3500000e-02, 4.6000000e-02, 0.0
5949, 2.3926312e-02, 4.6000000e-02, 0.0
5950, 2.4000000e-02, 4.6000000e-02, 0.0
5951, 2.4500000e-02, 4.6000000e-02, 0.0
5952, 2.5000000e-02, 4.6000000e-02, 0.0
5953, 2.5500000e-02, 4.6000000e-02, 0.0
5954, 2.5777404e-02, 4.6000000e-02, 0.0
5955, 2.6000000e-02, 4.6000000e-02, 0.0
5956, 2.6449813e-02, 4.6000000e-02, 0.0
5957, 2.6500000e-02, 4.6000000e-02, 0.0
5958, 2.7000000e-02, 4.6000000e-02, 0.0
5959, 2.7500000e-02, 4.6000000e-02, 0.0
5960, 2.8000000e-02, 4.6000000e-02, 0.0
5961, 2.8444995e-02, 4.6000000e-02, 0.0
5962, 2.8500000e-02, 4.6000000e-02, 0.0
5963, 2.9000000e-02, 4.6000000e-02, 0.0
5964, 2.9166998e-02, 4.6000000e-02, 0.0
5965, 2.9500000e-02, 4.6000000e-02, 0.0
5966, 3.0000000e-02, 4.6000000e-02, 0.0
5967, 3.0500000e-02, 4.6000000e-02, 0.0
5968, 3.1000000e-02, 4.6000000e-02, 0.0
5969, 3.1500000e-02, 4.6000000e-02, 0.0
5970, 3.1826348e-02, 4.6000000e-02, 0.0
5971, 3.2000000e-02, 4.6000000e-02, 0.0
5972, 3.2158503e-02, 4.6000000e-02, 0.0
5973, 3.2500000e-02, 4.6000000e-02, 0.0
5974, 3.3000000e-02, 4.6000000e-02, 0.0
5975, 3.3500000e-02, 4.6000000e-02, 0.0
5976, 3.4000000e-02, 4.6000000e-02, 0.0
5977, 3.4500000e-02, 4.6000000e-02, 0.0
5978, 3.5000000e-02, 4.6000000e-02, 0.0
5979, 3.5422098e-02, 4.6000000e-02, 0.0
5980, 3.5500000e-02, 4.6000000e-02, 0.0
5981, 3.5818722e-02, 4.6000000e-02, 0.0
5982, 3.6000000e-02, 4.6000000e-02, 0.0
5983, 3.6500000e-02, 4.6000000e-02, 0.0
5984, 3.7000000e-02, 4.6000000e-02, 0.0
5985, 3.7500000e-02, 4.6000000e-02, 0.0
5986, 3.8000000e-02, 4.6000000e-02, 0.0
5987, 3.8500000e-02, 4.6000000e-02, 0.0
5988, 3.8955553e-02, 4.6000000e-02, 0.0
5989, 3.9000000e-02, 4.6000000e-02, 0.0
5990, 3.9500000e-02, 4.6000000e-02, 0.0
5991, 4.0000000e-02, 4.6000000e-02, 0.0
5992, 4.0319382e-02, 4.6000000e-02, 0.0
5993, 4.0500000e-02, 4.6000000e-02, 0.0
5994, 4.1000000e-02, 4.6000000e-02, 0.0
5995, 4.1500000e-02, 4.6000000e-02, 0.0
5996, 4.2000000e-02, 4.6000000e-02, 0.0
5997, 4.2500000e-02, 4.6000000e-02, 0.0
5998, 4.2756638e-02, 4.6000000e-02, 0.0
5999, 4.3000000e-02, 4.6000000e-02, 0.0
6000, 4.3500000e-02, 4.6000000e-02, 0.0
6001, 4.4000000e-02, 4.6000000e-02, 0.0
6002, 4.4500000e-02, 4.6000000e-02, 0.0
6003, 4.5000000e-02, 4.6000000e-02, 0.0
6004, 4.5225587e-02, 4.6000000e-02, 0.0
6005, 4.5500000e-02, 4.6000000e-02, 0.0
6006, 4.6000000e-02, 4.6000000e-02, 0.0
6007, 4.6500000e-02, 4.6000000e-02, 0.0
6008, 4.6823122e-02, 4.6000000e-02, 0.0
6009, 4.7000000e-02, 4.6000000e-02, 0.0
6010, 4.7500000e-02, 4.6000000e-02, 0.0
6011, 4.8000000e-02, 4.6000000e-02, 0.0
6012, 4.8500000e-02, 4.6000000e-02, 0.0
6013, 4.9000000e-02, 4.6000000e-02, 0.0
6014, 4.9500000e-02, 4.6000000e-02, 0.0
6015, 5.0000000e-02, 4.6000000e-02, 0.0
6016, 5.0434600e-02, 4.6000000e-02, 0.0
6017, 5.0500000e-02, 4.6000000e-02, 0.0
6018, 5.1000000e-02, 4.6000000e-02, 0.0
6019, 5.1152776e-02, 4.6000000e-02, 0.0
6020, 5.1500000e-02, 4.6000000e-02, 0.0
6021, 5.2000000e-02, 4.6000000e-02, 0.0
6022, 5.2500000e-02, 4.6000000e-02, 0.0
6023, 5.3000000e-02, 4.6000000e-02, 0.0
6024, 5.3500000e-02, 4.6000000e-02, 0.0
6025, 5.4000000e-02, 4.6000000e-02, 0.0
6026, 5.4500000e-02, 4.6000000e-02, 0.0
6027, 5.5000000e-02, 4.6000000e-02, 0.0
6028, 5.5500000e-02, 4.6000000e-02, 0.0
6029, 5.5743368e-02, 4.6000000e-02, 0.0
6030, 5.5843682e-02, 4.6000000e-02, 0.0
6031, 5.6000000e-02, 4.6000000e-02, 0.0
6032, 5.6500000e-02, 4.6000000e-02, 0.0
6033, 5.7000000e-02, 4.6000000e-02, 0.0
6034, 5.7500000e-02, 4.6000000e-02, 0.0
6035, 5.8000000e-02, 4.6000000e-02, 0.0
6036, 5.8500000e-02, 4.6000000e-02, 0.0
6037, 5.9000000e-02, 4.6000000e-02, 0.0
6038, 5.9500000e-02, 4.6000000e-02, 0.0
6039, 6.0000000e-02, 4.6000000e-02, 0.0
6040, 6.0500000e-02, 4.6000000e-02, 0.0
6041, 6.0592670e-02, 4.6000000e-02, 0.0
6042, 6.1000000e-02, 4.6000000e-02, 0.0
6043, 6.1500000e-02, 4.6000000e-02, 0.0
6044, 6.2000000e-02, 4.6000000e-02, 0.0
6045, 6.2500000e-02, 4.6000000e-02, 0.0
6046, 6.3000000e-02, 4.6000000e-02, 0.0
6047, 6.3500000e-02, 4.6000000e-02, 0.0
6048, 6.4000000e-02, 4.6000000e-02, 0.0
6049, 6.4500000e-02, 4.6000000e-02, 0.0
6050, 6.5000000e-02, 4.6000000e-02, 0.0
6051, 6.5500000e-02, 4.6000000e-02, 0.0
6052, 6.5698449e-02, 4.6000000e-02, 0.0
6053, 8.0000000e-03, 4.6500000e-02, 0.0
6054, 7.5000000e-03, 4.6500000e-02, 0.0
6055, 8.5000000e-03, 4.6500000e-02, 0.0
6056, 9.0000000e-03, 4.6500000e-02, 0.0
6057, 9.5000000e-03, 4.6500000e-02, 0.0
6058, 1.0000000e-02, 4.6500000e-02, 0.0
6059, 1.0500000e-02, 4.6500000e-02, 0.0
6060, 1.1000000e-02, 4.6500000e-02, 0.0
6061, 1.1030671e-02, 4.6500000e-02, 0.0
6062, 1.1500000e-02, 4.6500000e-02, 0.0
6063, 1.2000000e-02, 4.6500000e-02, 0.0
6064, 1.2500000e-02, 4.6500000e-02, 0.0
6065, 1.3000000e-02, 4.6500000e-02, 0.0
6066, 1.3500000e-02, 4.6500000e-02, 0.0
6067, 1.4000000e-02, 4.6500000e-02, 0.0
6068, 1.4500000e-02, 4.6500000e-02, 0.0
6069, 1.4707561e-02, 4.6500000e-02, 0.0
6070, 1.4855500e-02, 4.6500000e-02, 0.0
6071, 1.5000000e-02, 4.6500000e-02, 0.0
6072, 1.5297833e-02, 4.6500000e-02, 0.0
6073, 1.5500000e-02, 4.6500000e-02, 0.0
6074, 1.6000000e-02, 4.6500000e-02, 0.0
6075, 1.6032328e-02, 4.6500000e-02, 0.0
6076, 1.6500000e-02, 4.6500000e-02, 0.0
6077, 1.7000000e-02, 4.6500000e-02, 0.0
6078, 1.7056755e-02, 4.6500000e-02, 0.0
6079, 1.7500000e-02, 4.6500000e-02, 0.0
6080, 1.8000000e-02, 4.6500000e-02, 0.0
6081, 1.8368883e-02, 4.6500000e-02, 0.0
6082, 1.8500000e-02, 4.6500000e-02, 0.0
6083, 1.9000000e-02, 4.6500000e-02, 0.0
6084, 1.9500000e-02, 4.6500000e-02, 0.0
6085, 1.9966484e-02, 4.6500000e-02, 0.0
6086, 2.0000000e-02, 4.6500000e-02, 0.0
6087, 2.0500000e-02, 4.6500000e-02, 0.0
6088, 2.1000000e-02, 4.6500000e-02, 0.0
6089, 2.1500000e-02, 4.6500000e-02, 0.0
6090, 2.1847326e-02, 4.6500000e-02, 0.0
6091, 2.2000000e-02, 4.6500000e-02, 0.0
6092, 2.2500000e-02, 4.6500000e-02, 0.0
6093, 2.2994457e-02, 4.6500000e-02, 0.0
6094, 2.3500000e-02, 4.6500000e-02, 0.0
6095, 2.3926312e-02, 4.6500000e-02, 0.0
6096, 2.4000000e-02, 4.6500000e-02, 0.0
6097, 2.4500000e-02, 4.6500000e-02, 0.0
6098, 2.5000000e-02, 4.6500000e-02, 0.0
6099, 2.5500000e-02, 4.6500000e-02, 0.0
6100, 2.5777404e-02, 4.6500000e-02, 0.0
6101, 2.6000000e-02, 4.6500000e-02, 0.0
6102, 2.6449813e-02, 4.6500000e-02, 0.0
6103, 2.6500000e-02, 4.6500000e-02, 0.0
6104, 2.7000000e-02, 4.6500000e-02, 0.0
6105, 2.7500000e-02, 4.6500000e-02, 0.0
6106, 2.8000000e-02, 4.6500000e-02, 0.0
6107, 2.8444995e-02, 4.6500000e-02, 0.0
6108, 2.8500000e-02, 4.6500000e-02, 0.0
6109, 2.9000000e-02, 4.6500000e-02, 0.0
6110, 2.9166998e-02, 4.6500000e-02, 0.0
6111, 2.9500000e-02, 4.6500000e-02, 0.0
6112, 3.0000000e-02, 4.6500000e-02, 0.0
6113, 3.0500000e-02, 4.6500000e-02, 0.0
6114, 3.1000000e-02, 4.6500000e-02, 0.0
6115, 3.1500000e-02, 4.6500000e-02, 0.0
6116, 3.1826348e-02, 4.6500000e-02, 0.0
6117, 3.2000000e-02, 4.6500000e-02, 0.0
6118, 3.2158503e-02, 4.6500000e-02, 0.0
6119, 3.2500000e-02, 4.6500000e-02, 0.0
6120, 3.3000000e-02, 4.6500000e-02, 0.0
6121, 3.3500000e-02, 4.6500000e-02, 0.0
6122, 3.4000000e-02, 4.6500000e-02, 0.0
6123, 3.4500000e-02, 4.6500000e-02, 0.0
6124, 3.5000000e-02, 4.6500000e-02, 0.0
6125, 3.5422098e-02, 4.6500000e-02, 0.0
6126, 3.5500000e-02, 4.6500000e-02, 0.0
6127, 3.5818722e-02, 4.6500000e-02, 0.0
6128, 3.6000000e-02, 4.6500000e-02, 0.0
6129, 3.6500000e-02, 4.6500000e-02, 0.0
6130, 3.7000000e-02, 4.6500000e-02, 0.0
6131, 3.7500000e-02, 4.6500000e-02, 0.0
6132, 3.8000000e-02, 4.6500000e-02, 0.0
6133, 3.8500000e-02, 4.6500000e-02, 0.0
6134, 3.8955553e-02, 4.6500000e-02, 0.0
6135, 3.9000000e-02, 4.6500000e-02, 0.0
6136, 3.9500000e-02, 4.6500000e-02, 0.0
6137, 4.0000000e-02, 4.6500000e-02, 0.0
6138, 4.0319382e-02, 4.6500000e-02, 0.0
6139, 4.0500000e-02, 4.6500000e-02, 0.0
6140, 4.1000000e-02, 4.6500000e-02, 0.0
6141, 4.1500000e-02, 4.6500000e-02, 0.0
6142, 4.2000000e-02, 4.6500000e-02, 0.0
6143, 4.2500000e-02, 4.6500000e-02, 0.0
6144, 4.2756638e-02, 4.6500000e-02, 0.0
6145, 4.3000000e-02, 4.6500000e-02, 0.0
6146, 4.3500000e-02, 4.6500000e-02, 0.0
6147, 4.4000000e-02, 4.6500000e-02, 0.0
6148, 4.4500000e-02, 4.6500000e-02, 0.0
6149, 4.5000000e-02, 4.6500000e-02, 0.0
6150, 4.5225587e-02, 4.6500000e-02, 0.0
6151, 4.5500000e-02, 4.6500000e-02, 0.0
6152, 4.6000000e-02, 4.6500000e-02, 0.0
6153, 4.6500000e-02, 4.6500000e-02, 0.0
6154, 4.6823122e-02, 4.6500000e-02, 0.0
6155, 4.7000000e-02, 4.6500000e-02, 0.0
6156, 4.7500000e-02, 4.6500000e-02, 0.0
6157, 4.8000000e-02, 4.6500000e-02, 0.0
6158, 4.8500000e-02, 4.6500000e-02, 0.0
6159, 4.9000000e-02, 4.6500000e-02, 0.0
6160, 4.9500000e-02, 4.6500000e-02, 0.0
6161, 5.0000000e-02, 4.6500000e-02, 0.0
6162, 5.0434600e-02, 4.6500000e-02, 0.0
6163, 5.0500000e-02, 4.6500000e-02, 0.0
6164, 5.1000000e-02, 4.6500000e-02, 0.0
6165, 5.1152776e-02, 4.6500000e-02, 0.0
6166, 5.1500000e-02, 4.6500000e-02, 0.0
6167, 5.2000000e-02, 4.6500000e-02, 0.0
6168, 5.2500000e-02, 4.6500000e-02, 0.0
6169, 5.3000000e-02, 4.6500000e-02, 0.0
6170, 5.3500000e-02, 4.6500000e-02, 0.0
6171, 5.4000000e-02, 4.6500000e-02, 0.0
6172, 5.4500000e-02, 4.6500000e-02, 0.0
6173, 5.5000000e-02, 4.6500000e-02, 0.0
6174, 5.5500000e-02, 4.6500000e-02, 0.0
6175, 5.5743368e-02, 4.6500000e-02, 0.0
6176, 5.5843682e-02, 4.6500000e-02, 0.0
6177, 5.6000000e-02, 4.6500000e-02, 0.0
6178, 5.6500000e-02, 4.6500000e-02, 0.0
6179, 5.7000000e-02, 4.6500000e-02, 0.0
6180, 5.7500000e-02, 4.6500000e-02, 0.0
6181, 5.8000000e-02, 4.6500000e-02, 0.0
6182, 5.8500000e-02, 4.6500000e-02, 0.0
6183, 5.9000000e-02, 4.6500000e-02, 0.0
6184, 5.9500000e-02, 4.6500000e-02, 0.0
6185, 6.0000000e-02, 4.6500000e-02, 0.0
6186, 6.0500000e-02, 4.6500000e-02, 0.0
6187, 6.0592670e-02, 4.6500000e-02, 0.0
6188, 6.1000000e-02, 4.6500000e-02, 0.0
6189, 6.1500000e-02, 4.6500000e-02, 0.0
6190, 6.2000000e-02, 4.6500000e-02, 0.0
6191, 6.2500000e-02, 4.6500000e-02, 0.0
6192, 6.3000000e-02, 4.6500000e-02, 0.0
6193, 6.3500000e-02, 4.6500000e-02, 0.0
6194, 8.0000000e-03, 4.7000000e-02, 0.0
6195, 7.5000000e-03, 4.7000000e-02, 0.0
6196, 8.5000000e-03, 4.7000000e-02, 0.0
6197, 9.0000000e-03, 4.7000000e-02, 0.0
6198, 9.5000000e-03, 4.7000000e-02, 0.0
6199, 1.0000000e-02, 4.7000000e-02, 0.0
6200, 1.0500000e-02, 4.7000000e-02, 0.0
6201, 1.1000000e-02, 4.7000000e-02, 0.0
6202, 1.1030671e-02, 4.7000000e-02, 0.0
6203, 1.1500000e-02, 4.7000000e-02, 0.0
6204, 1.2000000e-02, 4.7000000e-02, 0.0
6205, 1.2500000e-02, 4.7000000e-02, 0.0
6206, 1.3000000e-02, 4.7000000e-02, 0.0
6207, 1.3500000e-02, 4.7000000e-02, 0.0
6208, 1.4000000e-02, 4.7000000e-02, 0.0
6209, 1.4500000e-02, 4.7000000e-02, 0.0
6210, 1.4707561e-02, 4.7000000e-02, 0.0
6211, 1.4855500e-02, 4.7000000e-02, 0.0
6212, 1.5000000e-02, 4.7000000e-02, 0.0
6213, 1.5297833e-02, 4.7000000e-02, 0.0
6214, 1.5500000e-02, 4.7000000e-02, 0.0
6215, 1.6000000e-02, 4.7000000e-02, 0.0
6216, 1.6032328e-02, 4.7000000e-02, 0.0
6217, 1.6500000e-02, 4.7000000e-02, 0.0
6218, 1.7000000e-02, 4.7000000e-02, 0.0
6219, 1.7056755e-02, 4.7000000e-02, 0.0
6220, 1.7500000e-02, 4.7000000e-02, 0.0
6221, 1.8000000e-02, 4.7000000e-02, 0.0
6222, 1.8368883e-02, 4.7000000e-02, 0.0
6223, 1.8500000e-02, 4.7000000e-02, 0.0
6224, 1.9000000e-02, 4.7000000e-02, 0.0
6225, 1.9500000e-02, 4.7000000e-02, 0.0
6226, 1.9966484e-02, 4.7000000e-02, 0.0
6227, 2.0000000e-02, 4.7000000e-02, 0.0
6228, 2.0500000e-02, 4.7000000e-02, 0.0
6229, 2.1000000e-02, 4.7000000e-02, 0.0
6230, 2.1500000e-02, 4.7000000e-02, 0.0
6231, 2.1847326e-02, 4.7000000e-02, 0.0
6232, 2.2000000e-02, 4.7000000e-02, 0.0
6233, 2.2500000e-02, 4.7000000e-02, 0.0
6234, 2.2994457e-02, 4.7000000e-02, 0.0
6235, 2.3500000e-02, 4.7000000e-02, 0.0
6236, 2.3926312e-02, 4.7000000e-02, 0.0
6237, 2.4000000e-02, 4.7000000e-02, 0.0
6238, 2.4500000e-02, 4.7000000e-02, 0.0
6239, 2.5000000e-02, 4.7000000e-02, 0.0
6240, 2.5500000e-02, 4.7000000e-02, 0.0
6241, 2.5777404e-02, 4.7000000e-02, 0.0
6242, 2.6000000e-02, 4.7000000e-02, 0.0
6243, 2.6449813e-02, 4.7000000e-02, 0.0
6244, 2.6500000e-02, 4.7000000e-02, 0.0
6245, 2.7000000e-02, 4.7000000e-02, 0.0
6246, 2.7500000e-02, 4.7000000e-02, 0.0
6247, 2.8000000e-02, 4.7000000e-02, 0.0
6248, 2.8444995e-02, 4.7000000e-02, 0.0
6249, 2.8500000e-02, 4.7000000e-02, 0.0
6250, 2.9000000e-02, 4.7000000e-02, 0.0
6251, 2.9166998e-02, 4.7000000e-02, 0.0
6252, 2.9500000e-02, 4.7000000e-02, 0.0
6253, 3.0000000e-02, 4.7000000e-02, 0.0
6254, 3.0500000e-02, 4.7000000e-02, 0.0
6255, 3.1000000e-02, 4.7000000e-02, 0.0
6256, 3.1500000e-02, 4.7000000e-02, 0.0
6257, 3.1826348e-02, 4.7000000e-02, 0.0
6258, 3.2000000e-02, 4.7000000e-02, 0.0
6259, 3.2158503e-02, 4.7000000e-02, 0.0
6260, 3.2500000e-02, 4.7000000e-02, 0.0
6261, 3.3000000e-02, 4.7000000e-02, 0.0
6262, 3.3500000e-02, 4.7000000e-02, 0.0
6263, 3.4000000e-02, 4.7000000e-02, 0.0
6264, 3.4500000e-02, 4.7000000e-02, 0.0
6265, 3.5000000e-02, 4.7000000e-02, 0.0
6266, 3.5422098e-02, 4.7000000e-02, 0.0
6267, 3.5500000e-02, 4.7000000e-02, 0.0
6268, 3.5818722e-02, 4.7000000e-02, 0.0
6269, 3.6000000e-02, 4.7000000e-02, 0.0
6270, 3.6500000e-02, 4.7000000e-02, 0.0
6271, 3.7000000e-02, 4.7000000e-02, 0.0
6272, 3.7500000e-02, 4.7000000e-02, 0.0
6273, 3.8000000e-02, 4.7000000e-02, 0.0
6274, 3.8500000e-02, 4.7000000e-02, 0.0
6275, 3.8955553e-02, 4.7000000e-02, 0.0
6276, 3.9000000e-02, 4.7000000e-02, 0.0
6277, 3.9500000e-02, 4.7000000e-02, 0.0
6278, 4.0000000e-02, 4.7000000e-02, 0.0
6279, 4.0319382e-02, 4.7000000e-02, 0.0
6280, 4.0500000e-02, 4.7000000e-02, 0.0
6281, 4.1000000e-02, 4.7000000e-02, 0.0
6282, 4.1500000e-02, 4.7000000e-02, 0.0
6283, 4.2000000e-02, 4.7000000e-02, 0.0
6284, 4.2500000e-02, 4.7000000e-02, 0.0
6285, 4.2756638e-02, 4.7000000e-02, 0.0
6286, 4.3000000e-02, 4.7000000e-02, 0.0
6287, 4.3500000e-02, 4.7000000e-02, 0.0
6288, 4.4000000e-02, 4.7000000e-02, 0.0
6289, 4.4500000e-02, 4.7000000e-02, 0.0
6290, 4.5000000e-02, 4.7000000e-02, 0.0
6291, 4.5225587e-02, 4.7000000e-02, 0.0
6292, 4.5500000e-02, 4.7000000e-02, 0.0
6293, 4.6000000e-02, 4.7000000e-02, 0.0
6294, 4.6500000e-02, 4.7000000e-02, 0.0
6295, 4.6823122e-02, 4.7000000e-02, 0.0
6296, 4.7000000e-02, 4.7000000e-02, 0.0
6297, 4.7500000e-02, 4.7000000e-02, 0.0
6298, 4.8000000e-02, 4.7000000e-02, 0.0
6299, 4.8500000e-02, 4.7000000e-02, 0.0
6300, 4.9000000e-02, 4.7000000e-02, 0.0
6301, 4.9500000e-02, 4.7000000e-02, 0.0
6302, 5.0000000e-02, 4.7000000e-02, 0.0
6303, 5.0434600e-02, 4.7000000e-02, 0.0
6304, 5.0500000e-02, 4.7000000e-02, 0.0
6305, 5.1000000e-02, 4.7000000e-02, 0.0
6306, 5.1152776e-02, 4.7000000e-02, 0.0
6307, 5.1500000e-02, 4.7000000e-02, 0.0
6308, 5.2000000e-02, 4.7000000e-02, 0.0
6309, 5.2500000e-02, 4.7000000e-02, 0.0
6310, 5.3000000e-02, 4.7000000e-02, 0.0
6311, 5.3500000e-02, 4.7000000e-02, 0.0
6312, 5.4000000e-02, 4.7000000e-02, 0.0
6313, 5.4500000e-02, 4.7000000e-02, 0.0
6314, 5.5000000e-02, 4.7000000e-02, 0.0
6315, 5.5500000e-02, 4.7000000e-02, 0.0
6316, 5.5743368e-02, 4.7000000e-02, 0.0
6317, 5.5843682e-02, 4.7000000e-02, 0.0
6318, 5.6000000e-02, 4.7000000e-02, 0.0
6319, 5.6500000e-02, 4.7000000e-02, 0.0
6320, 5.7000000e-02, 4.7000000e-02, 0.0
6321, 5.7500000e-02, 4.7000000e-02, 0.0
6322, 5.8000000e-02, 4.7000000e-02, 0.0
6323, 5.8500000e-02, 4.7000000e-02, 0.0
6324, 5.9000000e-02, 4.7000000e-02, 0.0
6325, 5.9500000e-02, 4.7000000e-02, 0.0
6326, 6.0000000e-02, 4.7000000e-02, 0.0
6327, 8.0000000e-03, 4.7302883e-02, 0.0
6328, 7.5000000e-03, 4.7302883e-02, 0.0
6329, 8.5000000e-03, 4.7302883e-02, 0.0
6330, 9.0000000e-03, 4.7302883e-02, 0.0
6331, 9.5000000e-03, 4.7302883e-02, 0.0
6332, 1.0000000e-02, 4.7302883e-02, 0.0
6333, 1.0500000e-02, 4.7302883e-02, 0.0
6334, 1.1000000e-02, 4.7302883e-02, 0.0
6335, 1.1030671e-02, 4.7302883e-02, 0.0
6336, 1.1500000e-02, 4.7302883e-02, 0.0
6337, 1.2000000e-02, 4.7302883e-02, 0.0
6338, 1.2500000e-02, 4.7302883e-02, 0.0
6339, 1.3000000e-02, 4.7302883e-02, 0.0
6340, 1.3500000e-02, 4.7302883e-02, 0.0
6341, 1.4000000e-02, 4.7302883e-02, 0.0
6342, 1.4500000e-02, 4.7302883e-02, 0.0
6343, 1.4707561e-02, 4.7302883e-02, 0.0
6344, 1.4855500e-02, 4.7302883e-02, 0.0
6345, 1.5000000e-02, 4.7302883e-02, 0.0
6346, 1.5297833e-02, 4.7302883e-02, 0.0
6347, 1.5500000e-02, 4.7302883e-02, 0.0
6348, 1.6000000e-02, 4.7302883e-02, 0.0
6349, 1.6032328e-02, 4.7302883e-02, 0.0
6350, 1.6500000e-02, 4.7302883e-02, 0.0
6351, 1.7000000e-02, 4.7302883e-02, 0.0
6352, 1.7056755e-02, 4.7302883e-02, 0.0
6353, 1.7500000e-02, 4.7302883e-02, 0.0
6354, 1.8000000e-02, 4.7302883e-02, 0.0
6355, 1.8368883e-02, 4.7302883e-02, 0.0
6356, 1.8500000e-02, 4.7302883e-02, 0.0
6357, 1.9000000e-02, 4.7302883e-02, 0.0
6358, 1.9500000e-02, 4.7302883e-02, 0.0
6359, 1.9966484e-02, 4.7302883e-02, 0.0
6360, 2.0000000e-02, 4.7302883e-02, 0.0
6361, 2.0500000e-02, 4.7302883e-02, 0.0
6362, 2.1000000e-02, 4.7302883e-02, 0.0
6363, 2.1500000e-02, 4.7302883e-02, 0.0
6364, 2.1847326e-02, 4.7302883e-02, 0.0
6365, 2.2000000e-02, 4.7302883e-02, 0.0
6366, 2.2500000e-02, 4.7302883e-02, 0.0
6367, 2.2994457e-02, 4.7302883e-02, 0.0
6368, 2.3500000e-02, 4.7302883e-02, 0.0
6369, 2.3926312e-02, 4.7302883e-02, 0.0
6370, 2.4000000e-02, 4.7302883e-02, 0.0
6371, 2.4500000e-02, 4.7302883e-02, 0.0
6372, 2.5000000e-02, 4.7302883e-02, 0.0
6373, 2.5500000e-02, 4.7302883e-02, 0.0
6374, 2.5777404e-02, 4.7302883e-02, 0.0
6375, 2.6000000e-02, 4.7302883e-02, 0.0
6376, 2.6449813e-02, 4.7302883e-02, 0.0
6377, 2.6500000e-02, 4.7302883e-02, 0.0
6378, 2.7000000e-02, 4.7302883e-02, 0.0
6379, 2.7500000e-02, 4.7302883e-02, 0.0
6380, 2.8000000e-02, 4.7302883e-02, 0.0
6381, 2.8444995e-02, 4.7302883e-02, 0.0
6382, 2.8500000e-02, 4.7302883e-02, 0.0
6383, 2.9000000e-02, 4.7302883e-02, 0.0
6384, 2.9166998e-02, 4.7302883e-02, 0.0
6385, 2.9500000e-02, 4.7302883e-02, 0.0
6386, 3.0000000e-02, 4.7302883e-02, 0.0
6387, 3.0500000e-02, 4.7302883e-02, 0.0
6388, 3.1000000e-02, 4.7302883e-02, 0.0
6389, 3.1500000e-02, 4.7302883e-02, 0.0
6390, 3.1826348e-02, 4.7302883e-02, 0.0
6391, 3.2000000e-02, 4.7302883e-02, 0.0
6392, 3.2158503e-02, 4.7302883e-02, 0.0
6393, 3.2500000e-02, 4.7302883e-02, 0.0
6394, 3.3000000e-02, 4.7302883e-02, 0.0
6395, 3.3500000e-02, 4.7302883e-02, 0.0
6396, 3.4000000e-02, 4.7302883e-02, 0.0
6397, 3.4500000e-02, 4.7302883e-02, 0.0
6398, 3.5000000e-02, 4.7302883e-02, 0.0
6399, 3.5422098e-02, 4.7302883e-02, 0.0
6400, 3.5500000e-02, 4.7302883e-02, 0.0
6401, 3.5818722e-02, 4.7302883e-02, 0.0
6402, 3.6000000e-02, 4.7302883e-02, 0.0
6403, 3.6500000e-02, 4.7302883e-02, 0.0
6404, 3.7000000e-02, 4.7302883e-02, 0.0
6405, 3.7500000e-02, 4.7302883e-02, 0.0
6406, 3.8000000e-02, 4.7302883e-02, 0.0
6407, 3.8500000e-02, 4.7302883e-02, 0.0
6408, 3.8955553e-02, 4.7302883e-02, 0.0
6409, 3.9000000e-02, 4.7302883e-02, 0.0
6410, 3.9500000e-02, 4.7302883e-02, 0.0
6411, 4.0000000e-02, 4.7302883e-02, 0.0
6412, 4.0319382e-02, 4.7302883e-02, 0.0
6413, 4.0500000e-02, 4.7302883e-02, 0.0
6414, 4.1000000e-02, 4.7302883e-02, 0.0
6415, 4.1500000e-02, 4.7302883e-02, 0.0
6416, 4.2000000e-02, 4.7302883e-02, 0.0
6417, 4.2500000e-02, 4.7302883e-02, 0.0
6418, 4.2756638e-02, 4.7302883e-02, 0.0
6419, 4.3000000e-02, 4.7302883e-02, 0.0
6420, 4.3500000e-02, 4.7302883e-02, 0.0
6421, 4.4000000e-02, 4.7302883e-02, 0.0
6422, 4.4500000e-02, 4.7302883e-02, 0.0
6423, 4.5000000e-02, 4.7302883e-02, 0.0
6424, 4.5225587e-02, 4.7302883e-02, 0.0
6425, 4.5500000e-02, 4.7302883e-02, 0.0
6426, 4.6000000e-02, 4.7302883e-02, 0.0
6427, 4.6500000e-02, 4.7302883e-02, 0.0
6428, 4.6823122e-02, 4.7302883e-02, 0.0
6429, 4.7000000e-02, 4.7302883e-02, 0.0
6430, 4.7500000e-02, 4.7302883e-02, 0.0
6431, 4.8000000e-02, 4.7302883e-02, 0.0
6432, 4.8500000e-02, 4.7302883e-02, 0.0
6433, 4.9000000e-02, 4.7302883e-02, 0.0
6434, 4.9500000e-02, 4.7302883e-02, 0.0
6435, 5.0000000e-02, 4.7302883e-02, 0.0
6436, 5.0434600e-02, 4.7302883e-02, 0.0
6437, 5.0500000e-02, 4.7302883e-02, 0.0
6438, 5.1000000e-02, 4.7302883e-02, 0.0
6439, 5.1152776e-02, 4.7302883e-02, 0.0
6440, 5.1500000e-02, 4.7302883e-02, 0.0
6441, 5.2000000e-02, 4.7302883e-02, 0.0
6442, 5.2500000e-02, 4.7302883e-02, 0.0
6443, 5.3000000e-02, 4.7302883e-02, 0.0
6444, 5.3500000e-02, 4.7302883e-02, 0.0
6445, 5.4000000e-02, 4.7302883e-02, 0.0
6446, 5.4500000e-02, 4.7302883e-02, 0.0
6447, 5.5000000e-02, 4.7302883e-02, 0.0
6448, 5.5500000e-02, 4.7302883e-02, 0.0
6449, 5.5743368e-02, 4.7302883e-02, 0.0
6450, 5.5843682e-02, 4.7302883e-02, 0.0
6451, 5.6000000e-02, 4.7302883e-02, 0.0
6452, 5.6500000e-02, 4.7302883e-02, 0.0
6453, 5.7000000e-02, 4.7302883e-02, 0.0
6454, 8.0000000e-03, 4.7500000e-02, 0.0
6455, 7.5000000e-03, 4.7500000e-02, 0.0
6456, 8.5000000e-03, 4.7500000e-02, 0.0
6457, 9.0000000e-03, 4.7500000e-02, 0.0
6458, 9.5000000e-03, 4.7500000e-02, 0.0
6459, 1.0000000e-02, 4.7500000e-02, 0.0
6460, 1.0500000e-02, 4.7500000e-02, 0.0
6461, 1.1000000e-02, 4.7500000e-02, 0.0
6462, 1.1030671e-02, 4.7500000e-02, 0.0
6463, 1.1500000e-02, 4.7500000e-02, 0.0
6464, 1.2000000e-02, 4.7500000e-02, 0.0
6465, 1.2500000e-02, 4.7500000e-02, 0.0
6466, 1.3000000e-02, 4.7500000e-02, 0.0
6467, 1.3500000e-02, 4.7500000e-02, 0.0
6468, 1.4000000e-02, 4.7500000e-02, 0.0
6469, 1.4500000e-02, 4.7500000e-02, 0.0
6470, 1.4707561e-02, 4.7500000e-02, 0.0
6471, 1.4855500e-02, 4.7500000e-02, 0.0
6472, 1.5000000e-02, 4.7500000e-02, 0.0
6473, 1.5297833e-02, 4.7500000e-02, 0.0
6474, 1.5500000e-02, 4.7500000e-02, 0.0
6475, 1.6000000e-02, 4.7500000e-02, 0.0
6476, 1.6032328e-02, 4.7500000e-02, 0.0
6477, 1.6500000e-02, 4.7500000e-02, 0.0
6478, 1.7000000e-02, 4.7500000e-02, 0.0
6479, 1.7056755e-02, 4.7500000e-02, 0.0
6480, 1.7500000e-02, 4.7500000e-02, 0.0
6481, 1.8000000e-02, 4.7500000e-02, 0.0
6482, 1.8368883e-02, 4.7500000e-02, 0.0
6483, 1.8500000e-02, 4.7500000e-02, 0.0
6484, 1.9000000e-02, 4.7500000e-02, 0.0
6485, 1.9500000e-02, 4.7500000e-02, 0.0
6486, 1.9966484e-02, 4.7500000e-02, 0.0
6487, 2.0000000e-02, 4.7500000e-02, 0.0
6488, 2.0500000e-02, 4.7500000e-02, 0.0
6489, 2.1000000e-02, 4.7500000e-02, 0.0
6490, 2.1500000e-02, 4.7500000e-02, 0.0
6491, 2.1847326e-02, 4.7500000e-02, 0.0
6492, 2.2000000e-02, 4.7500000e-02, 0.0
6493, 2.2500000e-02, 4.7500000e-02, 0.0
6494, 2.2994457e-02, 4.7500000e-02, 0.0
6495, 2.3500000e-02, 4.7500000e-02, 0.0
6496, 2.3926312e-02, 4.7500000e-02, 0.0
6497, 2.4000000e-02, 4.7500000e-02, 0.0
6498, 2.4500000e-02, 4.7500000e-02, 0.0
6499, 2.5000000e-02, 4.7500000e-02, 0.0
6500, 2.5500000e-02, 4.7500000e-02, 0.0
6501, 2.5777404e-02, 4.7500000e-02, 0.0
6502, 2.6000000e-02, 4.7500000e-02, 0.0
6503, 2.6449813e-02, 4.7500000e-02, 0.0
6504, 2.6500000e-02, 4.7500000e-02, 0.0
6505, 2.7000000e-02, 4.7500000e-02, 0.0
6506, 2.7500000e-02, 4.7500000e-02, 0.0
6507, 2.8000000e-02, 4.7500000e-02, 0.0
6508, 2.8444995e-02, 4.7500000e-02, 0.0
6509, 2.8500000e-02, 4.7500000e-02, 0.0
6510, 2.9000000e-02, 4.7500000e-02, 0.0
6511, 2.9166998e-02, 4.7500000e-02, 0.0
6512, 2.9500000e-02, 4.7500000e-02, 0.0
6513, 3.0000000e-02, 4.7500000e-02, 0.0
6514, 3.0500000e-02, 4.7500000e-02, 0.0
6515, 3.1000000e-02, 4.7500000e-02, 0.0
6516, 3.1500000e-02, 4.7500000e-02, 0.0
6517, 3.1826348e-02, 4.7500000e-02, 0.0
6518, 3.2000000e-02, 4.7500000e-02, 0.0
6519, 3.2158503e-02, 4.7500000e-02, 0.0
6520, 3.2500000e-02, 4.7500000e-02, 0.0
6521, 3.3000000e-02, 4.7500000e-02, 0.0
6522, 3.3500000e-02, 4.7500000e-02, 0.0
6523, 3.4000000e-02, 4.7500000e-02, 0.0
6524, 3.4500000e-02, 4.7500000e-02, 0.0
6525, 3.5000000e-02, 4.7500000e-02, 0.0
6526, 3.5422098e-02, 4.7500000e-02, 0.0
6527, 3.5500000e-02, 4.7500000e-02, 0.0
6528, 3.5818722e-02, 4.7500000e-02, 0.0
6529, 3.6000000e-02, 4.7500000e-02, 0.0
6530, 3.6500000e-02, 4.7500000e-02, 0.0
6531, 3.7000000e-02, 4.7500000e-02, 0.0
6532, 3.7500000e-02, 4.7500000e-02, 0.0
6533, 3.8000000e-02, 4.7500000e-02, 0.0
6534, 3.8500000e-02, 4.7500000e-02, 0.0
6535, 3.8955553e-02, 4.7500000e-02, 0.0
6536, 3.9000000e-02, 4.7500000e-02, 0.0
6537, 3.9500000e-02, 4.7500000e-02, 0.0
6538, 4.0000000e-02, 4.7500000e-02, 0.0
6539, 4.0319382e-02, 4.7500000e-02, 0.0
6540, 4.0500000e-02, 4.7500000e-02, 0.0
6541, 4.1000000e-02, 4.7500000e-02, 0.0
6542, 4.1500000e-02, 4.7500000e-02, 0.0
6543, 4.2000000e-02, 4.7500000e-02, 0.0
6544, 4.2500000e-02, 4.7500000e-02, 0.0
6545, 4.2756638e-02, 4.7500000e-02, 0.0
6546, 4.3000000e-02, 4.7500000e-02, 0.0
6547, 4.3500000e-02, 4.7500000e-02, 0.0
6548, 4.4000000e-02, 4.7500000e-02, 0.0
6549, 4.4500000e-02, 4.7500000e-02, 0.0
6550, 4.5000000e-02, 4.7500000e-02, 0.0
6551, 4.5225587e-02, 4.7500000e-02, 0.0
6552, 4.5500000e-02, 4.7500000e-02, 0.0
6553, 4.6000000e-02, 4.7500000e-02, 0.0
6554, 4.6500000e-02, 4.7500000e-02, 0.0
6555, 4.6823122e-02, 4.7500000e-02, 0.0
6556, 4.7000000e-02, 4.7500000e-02, 0.0
6557, 4.7500000e-02, 4.7500000e-02, 0.0
6558, 4.8000000e-02, 4.7500000e-02, 0.0
6559, 4.8500000e-02, 4.7500000e-02, 0.0
6560, 4.9000000e-02, 4.7500000e-02, 0.0
6561, 4.9500000e-02, 4.7500000e-02, 0.0
6562, 5.0000000e-02, 4.7500000e-02, 0.0
6563, 5.0434600e-02, 4.7500000e-02, 0.0
6564, 5.0500000e-02, 4.7500000e-02, 0.0
6565, 5.1000000e-02, 4.7500000e-02, 0.0
6566, 5.1152776e-02, 4.7500000e-02, 0.0
6567, 5.1500000e-02, 4.7500000e-02, 0.0
6568, 5.2000000e-02, 4.7500000e-02, 0.0
6569, 5.2500000e-02, 4.7500000e-02, 0.0
6570, 5.3000000e-02, 4.7500000e-02, 0.0
6571, 5.3500000e-02, 4.7500000e-02, 0.0
6572, 5.4000000e-02, 4.7500000e-02, 0.0
6573, 5.4500000e-02, 4.7500000e-02, 0.0
6574, 5.5000000e-02, 4.7500000e-02, 0.0
6575, 5.5500000e-02, 4.7500000e-02, 0.0
6576, 8.0000000e-03, 4.8000000e-02, 0.0
6577, 7.5000000e-03, 4.8000000e-02, 0.0
6578, 8.5000000e-03, 4.8000000e-02, 0.0
6579, 9.0000000e-03, 4.8000000e-02, 0.0
6580, 9.5000000e-03, 4.8000000e-02, 0.0
6581, 1.0000000e-02, 4.8000000e-02, 0.0
6582, 1.0500000e-02, 4.8000000e-02, 0.0
6583, 1.1000000e-02, 4.8000000e-02, 0.0
6584, 1.1030671e-02, 4.8000000e-02, 0.0
6585, 1.1500000e-02, 4.8000000e-02, 0.0
6586, 1.2000000e-02, 4.8000000e-02, 0.0
6587, 1.2500000e-02, 4.8000000e-02, 0.0
6588, 1.3000000e-02, 4.8000000e-02, 0.0
6589, 1.3500000e-02, 4.8000000e-02, 0.0
6590, 1.4000000e-02, 4.8000000e-02, 0.0
6591, 1.4500000e-02, 4.8000000e-02, 0.0
6592, 1.4707561e-02, 4.8000000e-02, 0.0
6593, 1.4855500e-02, 4.8000000e-02, 0.0
6594, 1.5000000e-02, 4.8000000e-02, 0.0
6595, 1.5297833e-02, 4.8000000e-02, 0.0
6596, 1.5500000e-02, 4.8000000e-02, 0.0
6597, 1.6000000e-02, 4.8000000e-02, 0.0
6598, 1.6032328e-02, 4.8000000e-02, 0.0
6599, 1.6500000e-02, 4.8000000e-02, 0.0
6600, 1.7000000e-02, 4.8000000e-02, 0.0
6601, 1.7056755e-02, 4.8000000e-02, 0.0
6602, 1.7500000e-02, 4.8000000e-02, 0.0
6603, 1.8000000e-02, 4.8000000e-02, 0.0
6604, 1.8368883e-02, 4.8000000e-02, 0.0
6605, 1.8500000e-02, 4.8000000e-02, 0.0
6606, 1.9000000e-02, 4.8000000e-02, 0.0
6607, 1.9500000e-02, 4.8000000e-02, 0.0
6608, 1.9966484e-02, 4.8000000e-02, 0.0
6609, 2.0000000e-02, 4.8000000e-02, 0.0
6610, 2.0500000e-02, 4.8000000e-02, 0.0
6611, 2.1000000e-02, 4.8000000e-02, 0.0
6612, 2.1500000e-02, 4.8000000e-02, 0.0
6613, 2.1847326e-02, 4.8000000e-02, 0.0
6614, 2.2000000e-02, 4.8000000e-02, 0.0
6615, 2.2500000e-02, 4.8000000e-02, 0.0
6616, 2.2994457e-02, 4.8000000e-02, 0.0
6617, 2.3500000e-02, 4.8000000e-02, 0.0
6618, 2.3926312e-02, 4.8000000e-02, 0.0
6619, 2.4000000e-02, 4.8000000e-02, 0.0
6620, 2.4500000e-02, 4.8000000e-02, 0.0
6621, 2.5000000e-02, 4.8000000e-02, 0.0
6622, 2.5500000e-02, 4.8000000e-02, 0.0
6623, 2.5777404e-02, 4.8000000e-02, 0.0
6624, 2.6000000e-02, 4.8000000e-02, 0.0
6625, 2.6449813e-02, 4.8000000e-02, 0.0
6626, 2.6500000e-02, 4.8000000e-02, 0.0
6627, 2.7000000e-02, 4.8000000e-02, 0.0
6628, 2.7500000e-02, 4.8000000e-02, 0.0
6629, 2.8000000e-02, 4.8000000e-02, 0.0
6630, 2.8444995e-02, 4.8000000e-02, 0.0
6631, 2.8500000e-02, 4.8000000e-02, 0.0
6632, 2.9000000e-02, 4.8000000e-02, 0.0
6633, 2.9166998e-02, 4.8000000e-02, 0.0
6634, 2.9500000e-02, 4.8000000e-02, 0.0
6635, 3.0000000e-02, 4.8000000e-02, 0.0
6636, 3.0500000e-02, 4.8000000e-02, 0.0
6637, 3.1000000e-02, 4.8000000e-02, 0.0
6638, 3.1500000e-02, 4.8000000e-02, 0.0
6639, 3.1826348e-02, 4.8000000e-02, 0.0
6640, 3.2000000e-02, 4.8000000e-02, 0.0
6641, 3.2158503e-02, 4.8000000e-02, 0.0
6642, 3.2500000e-02, 4.8000000e-02, 0.0
6643, 3.3000000e-02, 4.8000000e-02, 0.0
6644, 3.3500000e-02, 4.8000000e-02, 0.0
6645, 3.4000000e-02, 4.8000000e-02, 0.0
6646, 3.4500000e-02, 4.8000000e-02, 0.0
6647, 3.5000000e-02, 4.8000000e-02, 0.0
6648, 3.5422098e-02, 4.8000000e-02, 0.0
6649, 3.5500000e-02, 4.8000000e-02, 0.0
6650, 3.5818722e-02, 4.8000000e-02, 0.0
6651, 3.6000000e-02, 4.8000000e-02, 0.0
6652, 3.6500000e-02, 4.8000000e-02, 0.0
6653, 3.7000000e-02, 4.8000000e-02, 0.0
6654, 3.7500000e-02, 4.8000000e-02, 0.0
6655, 3.8000000e-02, 4.8000000e-02, 0.0
6656, 3.8500000e-02, 4.8000000e-02, 0.0
6657, 3.8955553e-02, 4.8000000e-02, 0.0
6658, 3.9000000e-02, 4.8000000e-02, 0.0
6659, 3.9500000e-02, 4.8000000e-02, 0.0
6660, 4.0000000e-02, 4.8000000e-02, 0.0
6661, 4.0319382e-02, 4.8000000e-02, 0.0
6662, 4.0500000e-02, 4.8000000e-02, 0.0
6663, 4.1000000e-02, 4.8000000e-02, 0.0
6664, 4.1500000e-02, 4.8000000e-02, 0.0
6665, 4.2000000e-02, 4.8000000e-02, 0.0
6666, 4.2500000e-02, 4.8000000e-02, 0.0
6667, 4.2756638e-02, 4.8000000e-02, 0.0
6668, 4.3000000e-02, 4.8000000e-02, 0.0
6669, 4.3500000e-02, 4.8000000e-02, 0.0
6670, 4.4000000e-02, 4.8000000e-02, 0.0
6671, 4.4500000e-02, 4.8000000e-02, 0.0
6672, 4.5000000e-02, 4.8000000e-02, 0.0
6673, 4.5225587e-02, 4.8000000e-02, 0.0
6674, 4.5500000e-02, 4.8000000e-02, 0.0
6675, 4.6000000e-02, 4.8000000e-02, 0.0
6676, 4.6500000e-02, 4.8000000e-02, 0.0
6677, 4.6823122e-02, 4.8000000e-02, 0.0
6678, 4.7000000e-02, 4.8000000e-02, 0.0
6679, 4.7500000e-02, 4.8000000e-02, 0.0
6680, 4.8000000e-02, 4.8000000e-02, 0.0
6681, 4.8500000e-02, 4.8000000e-02, 0.0
6682, 4.9000000e-02, 4.8000000e-02, 0.0
6683, 4.9500000e-02, 4.8000000e-02, 0.0
6684, 5.0000000e-02, 4.8000000e-02, 0.0
6685, 5.0434600e-02, 4.8000000e-02, 0.0
6686, 5.0500000e-02, 4.8000000e-02, 0.0
6687, 5.1000000e-02, 4.8000000e-02, 0.0
6688, 5.1152776e-02, 4.8000000e-02, 0.0
6689, 5.1500000e-02, 4.8000000e-02, 0.0
6690, 5.2000000e-02, 4.8000000e-02, 0.0
6691, 5.2500000e-02, 4.8000000e-02, 0.0
6692, 5.3000000e-02, 4.8000000e-02, 0.0
6693, 5.3500000e-02, 4.8000000e-02, 0.0
6694, 5.4000000e-02, 4.8000000e-02, 0.0
6695, 8.0000000e-03, 4.8500000e-02, 0.0
6696, 7.5000000e-03, 4.8500000e-02, 0.0
6697, 8.5000000e-03, 4.8500000e-02, 0.0
6698, 9.0000000e-03, 4.8500000e-02, 0.0
6699, 9.5000000e-03, 4.8500000e-02, 0.0
6700, 1.0000000e-02, 4.8500000e-02, 0.0
6701, 1.0500000e-02, 4.8500000e-02, 0.0
6702, 1.1000000e-02, 4.8500000e-02, 0.0
6703, 1.1030671e-02, 4.8500000e-02, 0.0
6704, 1.1500000e-02, 4.8500000e-02, 0.0
6705, 1.2000000e-02, 4.8500000e-02, 0.0
6706, 1.2500000e-02, 4.8500000e-02, 0.0
6707, 1.3000000e-02, 4.8500000e-02, 0.0
6708, 1.3500000e-02, 4.8500000e-02, 0.0
6709, 1.4000000e-02, 4.8500000e-02, 0.0
6710, 1.4500000e-02, 4.8500000e-02, 0.0
6711, 1.4707561e-02, 4.8500000e-02, 0.0
6712, 1.4855500e-02, 4.8500000e-02, 0.0
6713, 1.5000000e-02, 4.8500000e-02, 0.0
6714, 1.5297833e-02, 4.8500000e-02, 0.0
6715, 1.5500000e-02, 4.8500000e-02, 0.0
6716, 1.6000000e-02, 4.8500000e-02, 0.0
6717, 1.6032328e-02, 4.8500000e-02, 0.0
6718, 1.6500000e-02, 4.8500000e-02, 0.0
6719, 1.7000000e-02, 4.8500000e-02, 0.0
6720, 1.7056755e-02, 4.8500000e-02, 0.0
6721, 1.7500000e-02, 4.8500000e-02, 0.0
6722, 1.8000000e-02, 4.8500000e-02, 0.0
6723, 1.8368883e-02, 4.8500000e-02, 0.0
6724, 1.8500000e-02, 4.8500000e-02, 0.0
6725, 1.9000000e-02, 4.8500000e-02, 0.0
6726, 1.9500000e-02, 4.8500000e-02, 0.0
6727, 1.9966484e-02, 4.8500000e-02, 0.0
6728, 2.0000000e-02, 4.8500000e-02, 0.0
6729, 2.0500000e-02, 4.8500000e-02, 0.0
6730, 2.1000000e-02, 4.8500000e-02, 0.0
6731, 2.1500000e-02, 4.8500000e-02, 0.0
6732, 2.1847326e-02, 4.8500000e-02, 0.0
6733, 2.2000000e-02, 4.8500000e-02, 0.0
6734, 2.2500000e-02, 4.8500000e-02, 0.0
6735, 2.2994457e-02, 4.8500000e-02, 0.0
6736, 2.3500000e-02, 4.8500000e-02, 0.0
6737, 2.3926312e-02, 4.8500000e-02, 0.0
6738, 2.4000000e-02, 4.8500000e-02, 0.0
6739, 2.4500000e-02, 4.8500000e-02, 0.0
6740, 2.5000000e-02, 4.8500000e-02, 0.0
6741, 2.5500000e-02, 4.8500000e-02, 0.0
6742, 2.5777404e-02, 4.8500000e-02, 0.0
6743, 2.6000000e-02, 4.8500000e-02, 0.0
6744, 2.6449813e-02, 4.8500000e-02, 0.0
6745, 2.6500000e-02, 4.8500000e-02, 0.0
6746, 2.7000000e-02, 4.8500000e-02, 0.0
6747, 2.7500000e-02, 4.8500000e-02, 0.0
6748, 2.8000000e-02, 4.8500000e-02, 0.0
6749, 2.8444995e-02, 4.8500000e-02, 0.0
6750, 2.8500000e-02, 4.8500000e-02, 0.0
6751, 2.9000000e-02, 4.8500000e-02, 0.0
6752, 2.9166998e-02, 4.8500000e-02, 0.0
6753, 2.9500000e-02, 4.8500000e-02, 0.0
6754, 3.0000000e-02, 4.8500000e-02, 0.0
6755, 3.0500000e-02, 4.8500000e-02, 0.0
6756, 3.1000000e-02, 4.8500000e-02, 0.0
6757, 3.1500000e-02, 4.8500000e-02, 0.0
6758, 3.1826348e-02, 4.8500000e-02, 0.0
6759, 3.2000000e-02, 4.8500000e-02, 0.0
6760, 3.2158503e-02, 4.8500000e-02, 0.0
6761, 3.2500000e-02, 4.8500000e-02, 0.0
6762, 3.3000000e-02, 4.8500000e-02, 0.0
6763, 3.3500000e-02, 4.8500000e-02, 0.0
6764, 3.4000000e-02, 4.8500000e-02, 0.0
6765, 3.4500000e-02, 4.8500000e-02, 0.0
6766, 3.5000000e-02, 4.8500000e-02, 0.0
6767, 3.5422098e-02, 4.8500000e-02, 0.0
6768, 3.5500000e-02, 4.8500000e-02, 0.0
6769, 3.5818722e-02, 4.8500000e-02, 0.0
6770, 3.6000000e-02, 4.8500000e-02, 0.0
6771, 3.6500000e-02, 4.8500000e-02, 0.0
6772, 3.7000000e-02, 4.8500000e-02, 0.0
6773, 3.7500000e-02, 4.8500000e-02, 0.0
6774, 3.8000000e-02, 4.8500000e-02, 0.0
6775, 3.8500000e-02, 4.8500000e-02, 0.0
6776, 3.8955553e-02, 4.8500000e-02, 0.0
6777, 3.9000000e-02, 4.8500000e-02, 0.0
6778, 3.9500000e-02, 4.8500000e-02, 0.0
6779, 4.0000000e-02, 4.8500000e-02, 0.0
6780, 4.0319382e-02, 4.8500000e-02, 0.0
6781, 4.0500000e-02, 4.8500000e-02, 0.0
6782, 4.1000000e-02, 4.8500000e-02, 0.0
6783, 4.1500000e-02, 4.8500000e-02, 0.0
6784, 4.2000000e-02, 4.8500000e-02, 0.0
6785, 4.2500000e-02, 4.8500000e-02, 0.0
6786, 4.2756638e-02, 4.8500000e-02, 0.0
6787, 4.3000000e-02, 4.8500000e-02, 0.0
6788, 4.3500000e-02, 4.8500000e-02, 0.0
6789, 4.4000000e-02, 4.8500000e-02, 0.0
6790, 4.4500000e-02, 4.8500000e-02, 0.0
6791, 4.5000000e-02, 4.8500000e-02, 0.0
6792, 4.5225587e-02, 4.8500000e-02, 0.0
6793, 4.5500000e-02, 4.8500000e-02, 0.0
6794, 4.6000000e-02, 4.8500000e-02, 0.0
6795, 4.6500000e-02, 4.8500000e-02, 0.0
6796, 4.6823122e-02, 4.8500000e-02, 0.0
6797, 4.7000000e-02, 4.8500000e-02, 0.0
6798, 4.7500000e-02, 4.8500000e-02, 0.0
6799, 4.8000000e-02, 4.8500000e-02, 0.0
6800, 4.8500000e-02, 4.8500000e-02, 0.0
6801, 4.9000000e-02, 4.8500000e-02, 0.0
6802, 4.9500000e-02, 4.8500000e-02, 0.0
6803, 5.0000000e-02, 4.8500000e-02, 0.0
6804, 5.0434600e-02, 4.8500000e-02, 0.0
6805, 5.0500000e-02, 4.8500000e-02, 0.0
6806, 5.1000000e-02, 4.8500000e-02, 0.0
6807, 5.1152776e-02, 4.8500000e-02, 0.0
6808, 5.1500000e-02, 4.8500000e-02, 0.0
6809, 8.0000000e-03, 4.8523126e-02, 0.0
6810, 7.5000000e-03, 4.8523126e-02, 0.0
6811, 8.5000000e-03, 4.8523126e-02, 0.0
6812, 9.0000000e-03, 4.8523126e-02, 0.0
6813, 9.5000000e-03, 4.8523126e-02, 0.0
6814, 1.0000000e-02, 4.8523126e-02, 0.0
6815, 1.0500000e-02, 4.8523126e-02, 0.0
6816, 1.1000000e-02, 4.8523126e-02, 0.0
6817, 1.1030671e-02, 4.8523126e-02, 0.0
6818, 1.1500000e-02, 4.8523126e-02, 0.0
6819, 1.2000000e-02, 4.8523126e-02, 0.0
6820, 1.2500000e-02, 4.8523126e-02, 0.0
6821, 1.3000000e-02, 4.8523126e-02, 0.0
6822, 1.3500000e-02, 4.8523126e-02, 0.0
6823, 1.4000000e-02, 4.8523126e-02, 0.0
6824, 1.4500000e-02, 4.8523126e-02, 0.0
6825, 1.4707561e-02, 4.8523126e-02, 0.0
6826, 1.4855500e-02, 4.8523126e-02, 0.0
6827, 1.5000000e-02, 4.8523126e-02, 0.0
6828, 1.5297833e-02, 4.8523126e-02, 0.0
6829, 1.5500000e-02, 4.8523126e-02, 0.0
6830, 1.6000000e-02, 4.8523126e-02, 0.0
6831, 1.6032328e-02, 4.8523126e-02, 0.0
6832, 1.6500000e-02, 4.8523126e-02, 0.0
6833, 1.7000000e-02, 4.8523126e-02, 0.0
6834, 1.7056755e-02, 4.8523126e-02, 0.0
6835, 1.7500000e-02, 4.8523126e-02, 0.0
6836, 1.8000000e-02, 4.8523126e-02, 0.0
6837, 1.8368883e-02, 4.8523126e-02, 0.0
6838, 1.8500000e-02, 4.8523126e-02, 0.0
6839, 1.9000000e-02, 4.8523126e-02, 0.0
6840, 1.9500000e-02, 4.8523126e-02, 0.0
6841, 1.9966484e-02, 4.8523126e-02, 0.0
6842, 2.0000000e-02, 4.8523126e-02, 0.0
6843, 2.0500000e-02, 4.8523126e-02, 0.0
6844, 2.1000000e-02, 4.8523126e-02, 0.0
6845, 2.1500000e-02, 4.8523126e-02, 0.0
6846, 2.1847326e-02, 4.8523126e-02, 0.0
6847, 2.2000000e-02, 4.8523126e-02, 0.0
6848, 2.2500000e-02, 4.8523126e-02, 0.0
6849, 2.2994457e-02, 4.8523126e-02, 0.0
6850, 2.3500000e-02, 4.8523126e-02, 0.0
6851, 2.3926312e-02, 4.8523126e-02, 0.0
6852, 2.4000000e-02, 4.8523126e-02, 0.0
6853, 2.4500000e-02, 4.8523126e-02, 0.0
6854, 2.5000000e-02, 4.8523126e-02, 0.0
6855, 2.5500000e-02, 4.8523126e-02, 0.0
6856, 2.5777404e-02, 4.8523126e-02, 0.0
6857, 2.6000000e-02, 4.8523126e-02, 0.0
6858, 2.6449813e-02, 4.8523126e-02, 0.0
6859, 2.6500000e-02, 4.8523126e-02, 0.0
6860, 2.7000000e-02, 4.8523126e-02, 0.0
6861, 2.7500000e-02, 4.8523126e-02, 0.0
6862, 2.8000000e-02, 4.8523126e-02, 0.0
6863, 2.8444995e-02, 4.8523126e-02, 0.0
6864, 2.8500000e-02, 4.8523126e-02, 0.0
6865, 2.9000000e-02, 4.8523126e-02, 0.0
6866, 2.9166998e-02, 4.8523126e-02, 0.0
6867, 2.9500000e-02, 4.8523126e-02, 0.0
6868, 3.0000000e-02, 4.8523126e-02, 0.0
6869, 3.0500000e-02, 4.8523126e-02, 0.0
6870, 3.1000000e-02, 4.8523126e-02, 0.0
6871, 3.1500000e-02, 4.8523126e-02, 0.0
6872, 3.1826348e-02, 4.8523126e-02, 0.0
6873, 3.2000000e-02, 4.8523126e-02, 0.0
6874, 3.2158503e-02, 4.8523126e-02, 0.0
6875, 3.2500000e-02, 4.8523126e-02, 0.0
6876, 3.3000000e-02, 4.8523126e-02, 0.0
6877, 3.3500000e-02, 4.8523126e-02, 0.0
6878, 3.4000000e-02, 4.8523126e-02, 0.0
6879, 3.4500000e-02, 4.8523126e-02, 0.0
6880, 3.5000000e-02, 4.8523126e-02, 0.0
6881, 3.5422098e-02, 4.8523126e-02, 0.0
6882, 3.5500000e-02, 4.8523126e-02, 0.0
6883, 3.5818722e-02, 4.8523126e-02, 0.0
6884, 3.6000000e-02, 4.8523126e-02, 0.0
6885, 3.6500000e-02, 4.8523126e-02, 0.0
6886, 3.7000000e-02, 4.8523126e-02, 0.0
6887, 3.7500000e-02, 4.8523126e-02, 0.0
6888, 3.8000000e-02, 4.8523126e-02, 0.0
6889, 3.8500000e-02, 4.8523126e-02, 0.0
6890, 3.8955553e-02, 4.8523126e-02, 0.0
6891, 3.9000000e-02, 4.8523126e-02, 0.0
6892, 3.9500000e-02, 4.8523126e-02, 0.0
6893, 4.0000000e-02, 4.8523126e-02, 0.0
6894, 4.0319382e-02, 4.8523126e-02, 0.0
6895, 4.0500000e-02, 4.8523126e-02, 0.0
6896, 4.1000000e-02, 4.8523126e-02, 0.0
6897, 4.1500000e-02, 4.8523126e-02, 0.0
6898, 4.2000000e-02, 4.8523126e-02, 0.0
6899, 4.2500000e-02, 4.8523126e-02, 0.0
6900, 4.2756638e-02, 4.8523126e-02, 0.0
6901, 4.3000000e-02, 4.8523126e-02, 0.0
6902, 4.3500000e-02, 4.8523126e-02, 0.0
6903, 4.4000000e-02, 4.8523126e-02, 0.0
6904, 4.4500000e-02, 4.8523126e-02, 0.0
6905, 4.5000000e-02, 4.8523126e-02, 0.0
6906, 4.5225587e-02, 4.8523126e-02, 0.0
6907, 4.5500000e-02, 4.8523126e-02, 0.0
6908, 4.6000000e-02, 4.8523126e-02, 0.0
6909, 4.6500000e-02, 4.8523126e-02, 0.0
6910, 4.6823122e-02, 4.8523126e-02, 0.0
6911, 4.7000000e-02, 4.8523126e-02, 0.0
6912, 4.7500000e-02, 4.8523126e-02, 0.0
6913, 4.8000000e-02, 4.8523126e-02, 0.0
6914, 4.8500000e-02, 4.8523126e-02, 0.0
6915, 4.9000000e-02, 4.8523126e-02, 0.0
6916, 4.9500000e-02, 4.8523126e-02, 0.0
6917, 5.0000000e-02, 4.8523126e-02, 0.0
6918, 5.0434600e-02, 4.8523126e-02, 0.0
6919, 5.0500000e-02, 4.8523126e-02, 0.0
6920, 8.0000000e-03, 4.9000000e-02, 0.0
6921, 7.5000000e-03, 4.9000000e-02, 0.0
6922, 8.5000000e-03, 4.9000000e-02, 0.0
6923, 9.0000000e-03, 4.9000000e-02, 0.0
6924, 9.5000000e-03, 4.9000000e-02, 0.0
6925, 1.0000000e-02, 4.9000000e-02, 0.0
6926, 1.0500000e-02, 4.9000000e-02, 0.0
6927, 1.1000000e-02, 4.9000000e-02, 0.0
6928, 1.1030671e-02, 4.9000000e-02, 0.0
6929, 1.1500000e-02, 4.9000000e-02, 0.0
6930, 1.2000000e-02, 4.9000000e-02, 0.0
6931, 1.2500000e-02, 4.9000000e-02, 0.0
6932, 1.3000000e-02, 4.9000000e-02, 0.0
6933, 1.3500000e-02, 4.9000000e-02, 0.0
6934, 1.4000000e-02, 4.9000000e-02, 0.0
6935, 1.4500000e-02, 4.9000000e-02, 0.0
6936, 1.4707561e-02, 4.9000000e-02, 0.0
6937, 1.4855500e-02, 4.9000000e-02, 0.0
6938, 1.5000000e-02, 4.9000000e-02, 0.0
6939, 1.5297833e-02, 4.9000000e-02, 0.0
6940, 1.5500000e-02, 4.9000000e-02, 0.0
6941, 1.6000000e-02, 4.9000000e-02, 0.0
6942, 1.6032328e-02, 4.9000000e-02, 0.0
6943, 1.6500000e-02, 4.9000000e-02, 0.0
6944, 1.7000000e-02, 4.9000000e-02, 0.0
6945, 1.7056755e-02, 4.9000000e-02, 0.0
6946, 1.7500000e-02, 4.9000000e-02, 0.0
6947, 1.8000000e-02, 4.9000000e-02, 0.0
6948, 1.8368883e-02, 4.9000000e-02, 0.0
6949, 1.8500000e-02, 4.9000000e-02, 0.0
6950, 1.9000000e-02, 4.9000000e-02, 0.0
6951, 1.9500000e-02, 4.9000000e-02, 0.0
6952, 1.9966484e-02, 4.9000000e-02, 0.0
6953, 2.0000000e-02, 4.9000000e-02, 0.0
6954, 2.0500000e-02, 4.9000000e-02, 0.0
6955, 2.1000000e-02, 4.9000000e-02, 0.0
6956, 2.1500000e-02, 4.9000000e-02, 0.0
6957, 2.1847326e-02, 4.9000000e-02, 0.0
6958, 2.2000000e-02, 4.9000000e-02, 0.0
6959, 2.2500000e-02, 4.9000000e-02, 0.0
6960, 2.2994457e-02, 4.9000000e-02, 0.0
6961, 2.3500000e-02, 4.9000000e-02, 0.0
6962, 2.3926312e-02, 4.9000000e-02, 0.0
6963, 2.4000000e-02, 4.9000000e-02, 0.0
6964, 2.4500000e-02, 4.9000000e-02, 0.0
6965, 2.5000000e-02, 4.9000000e-02, 0.0
6966, 2.5500000e-02, 4.9000000e-02, 0.0
6967, 2.5777404e-02, 4.9000000e-02, 0.0
6968, 2.6000000e-02, 4.9000000e-02, 0.0
6969, 2.6449813e-02, 4.9000000e-02, 0.0
6970, 2.6500000e-02, 4.9000000e-02, 0.0
6971, 2.7000000e-02, 4.9000000e-02, 0.0
6972, 2.7500000e-02, 4.9000000e-02, 0.0
6973, 2.8000000e-02, 4.9000000e-02, 0.0
6974, 2.8444995e-02, 4.9000000e-02, 0.0
6975, 2.8500000e-02, 4.9000000e-02, 0.0
6976, 2.9000000e-02, 4.9000000e-02, 0.0
6977, 2.9166998e-02, 4.9000000e-02, 0.0
6978, 2.9500000e-02, 4.9000000e-02, 0.0
6979, 3.0000000e-02, 4.9000000e-02, 0.0
6980, 3.0500000e-02, 4.9000000e-02, 0.0
6981, 3.1000000e-02, 4.9000000e-02, 0.0
6982, 3.1500000e-02, 4.9000000e-02, 0.0
6983, 3.1826348e-02, 4.9000000e-02, 0.0
6984, 3.2000000e-02, 4.9000000e-02, 0.0
6985, 3.2158503e-02, 4.9000000e-02, 0.0
6986, 3.2500000e-02, 4.9000000e-02, 0.0
6987, 3.3000000e-02, 4.9000000e-02, 0.0
6988, 3.3500000e-02, 4.9000000e-02, 0.0
6989, 3.4000000e-02, 4.9000000e-02, 0.0
6990, 3.4500000e-02, 4.9000000e-02, 0.0
6991, 3.5000000e-02, 4.9000000e-02, 0.0
6992, 3.5422098e-02, 4.9000000e-02, 0.0
6993, 3.5500000e-02, 4.9000000e-02, 0.0
6994, 3.5818722e-02, 4.9000000e-02, 0.0
6995, 3.6000000e-02, 4.9000000e-02, 0.0
6996, 3.6500000e-02, 4.9000000e-02, 0.0
6997, 3.7000000e-02, 4.9000000e-02, 0.0
6998, 3.7500000e-02, 4.9000000e-02, 0.0
6999, 3.8000000e-02, 4.9000000e-02, 0.0
7000, 3.8500000e-02, 4.9000000e-02, 0.0
7001, 3.8955553e-02, 4.9000000e-02, 0.0
7002, 3.9000000e-02, 4.9000000e-02, 0.0
7003, 3.9500000e-02, 4.9000000e-02, 0.0
7004, 4.0000000e-02, 4.9000000e-02, 0.0
7005, 4.0319382e-02, 4.9000000e-02, 0.0
7006, 4.0500000e-02, 4.9000000e-02, 0.0
7007, 4.1000000e-02, 4.9000000e-02, 0.0
7008, 4.1500000e-02, 4.9000000e-02, 0.0
7009, 4.2000000e-02, 4.9000000e-02, 0.0
7010, 4.2500000e-02, 4.9000000e-02, 0.0
7011, 4.2756638e-02, 4.9000000e-02, 0.0
7012, 4.3000000e-02, 4.9000000e-02, 0.0
7013, 4.3500000e-02, 4.9000000e-02, 0.0
7014, 4.4000000e-02, 4.9000000e-02, 0.0
7015, 4.4500000e-02, 4.9000000e-02, 0.0
7016, 4.5000000e-02, 4.9000000e-02, 0.0
7017, 4.5225587e-02, 4.9000000e-02, 0.0
7018, 4.5500000e-02, 4.9000000e-02, 0.0
7019, 4.6000000e-02, 4.9000000e-02, 0.0
7020, 4.6500000e-02, 4.9000000e-02, 0.0
7021, 4.6823122e-02, 4.9000000e-02, 0.0
7022, 4.7000000e-02, 4.9000000e-02, 0.0
7023, 4.7500000e-02, 4.9000000e-02, 0.0
7024, 4.8000000e-02, 4.9000000e-02, 0.0
7025, 4.8500000e-02, 4.9000000e-02, 0.0
7026, 4.9000000e-02, 4.9000000e-02, 0.0
7027, 8.0000000e-03, 4.9500000e-02, 0.0
7028, 7.5000000e-03, 4.9500000e-02, 0.0
7029, 8.5000000e-03, 4.9500000e-02, 0.0
7030, 9.0000000e-03, 4.9500000e-02, 0.0
7031, 9.5000000e-03, 4.9500000e-02, 0.0
7032, 1.0000000e-02, 4.9500000e-02, 0.0
7033, 1.0500000e-02, 4.9500000e-02, 0.0
7034, 1.1000000e-02, 4.9500000e-02, 0.0
7035, 1.1030671e-02, 4.9500000e-02, 0.0
7036, 1.1500000e-02, 4.9500000e-02, 0.0
7037, 1.2000000e-02, 4.9500000e-02, 0.0
7038, 1.2500000e-02, 4.9500000e-02, 0.0
7039, 1.3000000e-02, 4.9500000e-02, 0.0
7040, 1.3500000e-02, 4.9500000e-02, 0.0
7041, 1.4000000e-02, 4.9500000e-02, 0.0
7042, 1.4500000e-02, 4.9500000e-02, 0.0
7043, 1.4707561e-02, 4.9500000e-02, 0.0
7044, 1.4855500e-02, 4.9500000e-02, 0.0
7045, 1.5000000e-02, 4.9500000e-02, 0.0
7046, 1.5297833e-02, 4.9500000e-02, 0.0
7047, 1.5500000e-02, 4.9500000e-02, 0.0
7048, 1.6000000e-02, 4.9500000e-02, 0.0
7049, 1.6032328e-02, 4.9500000e-02, 0.0
7050, 1.6500000e-02, 4.9500000e-02, 0.0
7051, 1.7000000e-02, 4.9500000e-02, 0.0
7052, 1.7056755e-02, 4.9500000e-02, 0.0
7053, 1.7500000e-02, 4.9500000e-02, 0.0
7054, 1.8000000e-02, 4.9500000e-02, 0.0
7055, 1.8368883e-02, 4.9500000e-02, 0.0
7056, 1.8500000e-02, 4.9500000e-02, 0.0
7057, 1.9000000e-02, 4.9500000e-02, 0.0
7058, 1.9500000e-02, 4.9500000e-02, 0.0
7059, 1.9966484e-02, 4.9500000e-02, 0.0
7060, 2.0000000e-02, 4.9500000e-02, 0.0
7061, 2.0500000e-02, 4.9500000e-02, 0.0
7062, 2.1000000e-02, 4.9500000e-02, 0.0
7063, 2.1500000e-02, 4.9500000e-02, 0.0
7064, 2.1847326e-02, 4.9500000e-02, 0.0
7065, 2.2000000e-02, 4.9500000e-02, 0.0
7066, 2.2500000e-02, 4.9500000e-02, 0.0
7067, 2.2994457e-02, 4.9500000e-02, 0.0
7068, 2.3500000e-02, 4.9500000e-02, 0.0
7069, 2.3926312e-02, 4.9500000e-02, 0.0
7070, 2.4000000e-02, 4.9500000e-02, 0.0
7071, 2.4500000e-02, 4.9500000e-02, 0.0
7072, 2.5000000e-02, 4.9500000e-02, 0.0
7073, 2.5500000e-02, 4.9500000e-02, 0.0
7074, 2.5777404e-02, 4.9500000e-02, 0.0
7075, 2.6000000e-02, 4.9500000e-02, 0.0
7076, 2.6449813e-02, 4.9500000e-02, 0.0
7077, 2.6500000e-02, 4.9500000e-02, 0.0
7078, 2.7000000e-02, 4.9500000e-02, 0.0
7079, 2.7500000e-02, 4.9500000e-02, 0.0
7080, 2.8000000e-02, 4.9500000e-02, 0.0
7081, 2.8444995e-02, 4.9500000e-02, 0.0
7082, 2.8500000e-02, 4.9500000e-02, 0.0
7083, 2.9000000e-02, 4.9500000e-02, 0.0
7084, 2.9166998e-02, 4.9500000e-02, 0.0
7085, 2.9500000e-02, 4.9500000e-02, 0.0
7086, 3.0000000e-02, 4.9500000e-02, 0.0
7087, 3.0500000e-02, 4.9500000e-02, 0.0
7088, 3.1000000e-02, 4.9500000e-02, 0.0
7089, 3.1500000e-02, 4.9500000e-02, 0.0
7090, 3.1826348e-02, 4.9500000e-02, 0.0
7091, 3.2000000e-02, 4.9500000e-02, 0.0
7092, 3.2158503e-02, 4.9500000e-02, 0.0
7093, 3.2500000e-02, 4.9500000e-02, 0.0
7094, 3.3000000e-02, 4.9500000e-02, 0.0
7095, 3.3500000e-02, 4.9500000e-02, 0.0
7096, 3.4000000e-02, 4.9500000e-02, 0.0
7097, 3.4500000e-02, 4.9500000e-02, 0.0
7098, 3.5000000e-02, 4.9500000e-02, 0.0
7099, 3.5422098e-02, 4.9500000e-02, 0.0
7100, 3.5500000e-02, 4.9500000e-02, 0.0
7101, 3.5818722e-02, 4.9500000e-02, 0.0
7102, 3.6000000e-02, 4.9500000e-02, 0.0
7103, 3.6500000e-02, 4.9500000e-02, 0.0
7104, 3.7000000e-02, 4.9500000e-02, 0.0
7105, 3.7500000e-02, 4.9500000e-02, 0.0
7106, 3.8000000e-02, 4.9500000e-02, 0.0
7107, 3.8500000e-02, 4.9500000e-02, 0.0
7108, 3.8955553e-02, 4.9500000e-02, 0.0
7109, 3.9000000e-02, 4.9500000e-02, 0.0
7110, 3.9500000e-02, 4.9500000e-02, 0.0
7111, 4.0000000e-02, 4.9500000e-02, 0.0
7112, 4.0319382e-02, 4.9500000e-02, 0.0
7113, 4.0500000e-02, 4.9500000e-02, 0.0
7114, 4.1000000e-02, 4.9500000e-02, 0.0
7115, 4.1500000e-02, 4.9500000e-02, 0.0
7116, 4.2000000e-02, 4.9500000e-02, 0.0
7117, 4.2500000e-02, 4.9500000e-02, 0.0
7118, 4.2756638e-02, 4.9500000e-02, 0.0
7119, 4.3000000e-02, 4.9500000e-02, 0.0
7120, 4.3500000e-02, 4.9500000e-02, 0.0
7121, 4.4000000e-02, 4.9500000e-02, 0.0
7122, 4.4500000e-02, 4.9500000e-02, 0.0
7123, 4.5000000e-02, 4.9500000e-02, 0.0
7124, 4.5225587e-02, 4.9500000e-02, 0.0
7125, 4.5500000e-02, 4.9500000e-02, 0.0
7126, 4.6000000e-02, 4.9500000e-02, 0.0
7127, 4.6500000e-02, 4.9500000e-02, 0.0
7128, 4.6823122e-02, 4.9500000e-02, 0.0
7129, 8.0000000e-03, 4.9570336e-02, 0.0
7130, 7.5000000e-03, 4.9570336e-02, 0.0
7131, 8.5000000e-03, 4.9570336e-02, 0.0
7132, 9.0000000e-03, 4.9570336e-02, 0.0
7133, 9.5000000e-03, 4.9570336e-02, 0.0
7134, 1.0000000e-02, 4.9570336e-02, 0.0
7135, 1.0500000e-02, 4.9570336e-02, 0.0
7136, 1.1000000e-02, 4.9570336e-02, 0.0
7137, 1.1030671e-02, 4.9570336e-02, 0.0
7138, 1.1500000e-02, 4.9570336e-02, 0.0
7139, 1.2000000e-02, 4.9570336e-02, 0.0
7140, 1.2500000e-02, 4.9570336e-02, 0.0
7141, 1.3000000e-02, 4.9570336e-02, 0.0
7142, 1.3500000e-02, 4.9570336e-02, 0.0
7143, 1.4000000e-02, 4.9570336e-02, 0.0
7144, 1.4500000e-02, 4.9570336e-02, 0.0
7145, 1.4707561e-02, 4.9570336e-02, 0.0
7146, 1.4855500e-02, 4.9570336e-02, 0.0
7147, 1.5000000e-02, 4.9570336e-02, 0.0
7148, 1.5297833e-02, 4.9570336e-02, 0.0
7149, 1.5500000e-02, 4.9570336e-02, 0.0
7150, 1.6000000e-02, 4.9570336e-02, 0.0
7151, 1.6032328e-02, 4.9570336e-02, 0.0
7152, 1.6500000e-02, 4.9570336e-02, 0.0
7153, 1.7000000e-02, 4.9570336e-02, 0.0
7154, 1.7056755e-02, 4.9570336e-02, 0.0
7155, 1.7500000e-02, 4.9570336e-02, 0.0
7156, 1.8000000e-02, 4.9570336e-02, 0.0
7157, 1.8368883e-02, 4.9570336e-02, 0.0
7158, 1.8500000e-02, 4.9570336e-02, 0.0
7159, 1.9000000e-02, 4.9570336e-02, 0.0
7160, 1.9500000e-02, 4.9570336e-02, 0.0
7161, 1.9966484e-02, 4.9570336e-02, 0.0
7162, 2.0000000e-02, 4.9570336e-02, 0.0
7163, 2.0500000e-02, 4.9570336e-02, 0.0
7164, 2.1000000e-02, 4.9570336e-02, 0.0
7165, 2.1500000e-02, 4.9570336e-02, 0.0
7166, 2.1847326e-02, 4.9570336e-02, 0.0
7167, 2.2000000e-02, 4.9570336e-02, 0.0
7168, 2.2500000e-02, 4.9570336e-02, 0.0
7169, 2.2994457e-02, 4.9570336e-02, 0.0
7170, 2.3500000e-02, 4.9570336e-02, 0.0
7171, 2.3926312e-02, 4.9570336e-02, 0.0
7172, 2.4000000e-02, 4.9570336e-02, 0.0
7173, 2.4500000e-02, 4.9570336e-02, 0.0
7174, 2.5000000e-02, 4.9570336e-02, 0.0
7175, 2.5500000e-02, 4.9570336e-02, 0.0
7176, 2.5777404e-02, 4.9570336e-02, 0.0
7177, 2.6000000e-02, 4.9570336e-02, 0.0
7178, 2.6449813e-02, 4.9570336e-02, 0.0
7179, 2.6500000e-02, 4.9570336e-02, 0.0
7180, 2.7000000e-02, 4.9570336e-02, 0.0
7181, 2.7500000e-02, 4.9570336e-02, 0.0
7182, 2.8000000e-02, 4.9570336e-02, 0.0
7183, 2.8444995e-02, 4.9570336e-02, 0.0
7184, 2.8500000e-02, 4.9570336e-02, 0.0
7185, 2.9000000e-02, 4.9570336e-02, 0.0
7186, 2.9166998e-02, 4.9570336e-02, 0.0
7187, 2.9500000e-02, 4.9570336e-02, 0.0
7188, 3.0000000e-02, 4.9570336e-02, 0.0
7189, 3.0500000e-02, 4.9570336e-02, 0.0
7190, 3.1000000e-02, 4.9570336e-02, 0.0
7191, 3.1500000e-02, 4.9570336e-02, 0.0
7192, 3.1826348e-02, 4.9570336e-02, 0.0
7193, 3.2000000e-02, 4.9570336e-02, 0.0
7194, 3.2158503e-02, 4.9570336e-02, 0.0
7195, 3.2500000e-02, 4.9570336e-02, 0.0
7196, 3.3000000e-02, 4.9570336e-02, 0.0
7197, 3.3500000e-02, 4.9570336e-02, 0.0
7198, 3.4000000e-02, 4.9570336e-02, 0.0
7199, 3.4500000e-02, 4.9570336e-02, 0.0
7200, 3.5000000e-02, 4.9570336e-02, 0.0
7201, 3.5422098e-02, 4.9570336e-02, 0.0
7202, 3.5500000e-02, 4.9570336e-02, 0.0
7203, 3.5818722e-02, 4.9570336e-02, 0.0
7204, 3.6000000e-02, 4.9570336e-02, 0.0
7205, 3.6500000e-02, 4.9570336e-02, 0.0
7206, 3.7000000e-02, 4.9570336e-02, 0.0
7207, 3.7500000e-02, 4.9570336e-02, 0.0
7208, 3.8000000e-02, 4.9570336e-02, 0.0
7209, 3.8500000e-02, 4.9570336e-02, 0.0
7210, 3.8955553e-02, 4.9570336e-02, 0.0
7211, 3.9000000e-02, 4.9570336e-02, 0.0
7212, 3.9500000e-02, 4.9570336e-02, 0.0
7213, 4.0000000e-02, 4.9570336e-02, 0.0
7214, 4.0319382e-02, 4.9570336e-02, 0.0
7215, 4.0500000e-02, 4.9570336e-02, 0.0
7216, 4.1000000e-02, 4.9570336e-02, 0.0
7217, 4.1500000e-02, 4.9570336e-02, 0.0
7218, 4.2000000e-02, 4.9570336e-02, 0.0
7219, 4.2500000e-02, 4.9570336e-02, 0.0
7220, 4.2756638e-02, 4.9570336e-02, 0.0
7221, 4.3000000e-02, 4.9570336e-02, 0.0
7222, 4.3500000e-02, 4.9570336e-02, 0.0
7223, 4.4000000e-02, 4.9570336e-02, 0.0
7224, 4.4500000e-02, 4.9570336e-02, 0.0
7225, 4.5000000e-02, 4.9570336e-02, 0.0
7226, 4.5225587e-02, 4.9570336e-02, 0.0
7227, 4.5500000e-02, 4.9570336e-02, 0.0
7228, 8.0000000e-03, 5.0000000e-02, 0.0
7229, 7.5000000e-03, 5.0000000e-02, 0.0
7230, 8.5000000e-03, 5.0000000e-02, 0.0
7231, 9.0000000e-03, 5.0000000e-02, 0.0
7232, 9.5000000e-03, 5.0000000e-02, 0.0
7233, 1.0000000e-02, 5.0000000e-02, 0.0
7234, 1.0500000e-02, 5.0000000e-02, 0.0
7235, 1.1000000e-02, 5.0000000e-02, 0.0
7236, 1.1030671e-02, 5.0000000e-02, 0.0
7237, 1.1500000e-02, 5.0000000e-02, 0.0
7238, 1.2000000e-02, 5.0000000e-02, 0.0
7239, 1.2500000e-02, 5.0000000e-02, 0.0
7240, 1.3000000e-02, 5.0000000e-02, 0.0
7241, 1.3500000e-02, 5.0000000e-02, 0.0
7242, 1.4000000e-02, 5.0000000e-02, 0.0
7243, 1.4500000e-02, 5.0000000e-02, 0.0
7244, 1.4707561e-02, 5.0000000e-02, 0.0
7245, 1.4855500e-02, 5.0000000e-02, 0.0
7246, 1.5000000e-02, 5.0000000e-02, 0.0
7247, 1.5297833e-02, 5.0000000e-02, 0.0
7248, 1.5500000e-02, 5.0000000e-02, 0.0
7249, 1.6000000e-02, 5.0000000e-02, 0.0
7250, 1.6032328e-02, 5.0000000e-02, 0.0
7251, 1.6500000e-02, 5.0000000e-02, 0.0
7252, 1.7000000e-02, 5.0000000e-02, 0.0
7253, 1.7056755e-02, 5.0000000e-02, 0.0
7254, 1.7500000e-02, 5.0000000e-02, 0.0
7255, 1.8000000e-02, 5.0000000e-02, 0.0
7256, 1.8368883e-02, 5.0000000e-02, 0.0
7257, 1.8500000e-02, 5.0000000e-02, 0.0
7258, 1.9000000e-02, 5.0000000e-02, 0.0
7259, 1.9500000e-02, 5.0000000e-02, 0.0
7260, 1.9966484e-02, 5.0000000e-02, 0.0
7261, 2.0000000e-02, 5.0000000e-02, 0.0
7262, 2.0500000e-02, 5.0000000e-02, 0.0
7263, 2.1000000e-02, 5.0000000e-02, 0.0
7264, 2.1500000e-02, 5.0000000e-02, 0.0
7265, 2.1847326e-02, 5.0000000e-02, 0.0
7266, 2.2000000e-02, 5.0000000e-02, 0.0
7267, 2.2500000e-02, 5.0000000e-02, 0.0
7268, 2.2994457e-02, 5.0000000e-02, 0.0
7269, 2.3500000e-02, 5.0000000e-02, 0.0
7270, 2.3926312e-02, 5.0000000e-02, 0.0
7271, 2.4000000e-02, 5.0000000e-02, 0.0
7272, 2.4500000e-02, 5.0000000e-02, 0.0
7273, 2.5000000e-02, 5.0000000e-02, 0.0
7274, 2.5500000e-02, 5.0000000e-02, 0.0
7275, 2.5777404e-02, 5.0000000e-02, 0.0
7276, 2.6000000e-02, 5.0000000e-02, 0.0
7277, 2.6449813e-02, 5.0000000e-02, 0.0
7278, 2.6500000e-02, 5.0000000e-02, 0.0
7279, 2.7000000e-02, 5.0000000e-02, 0.0
7280, 2.7500000e-02, 5.0000000e-02, 0.0
7281, 2.8000000e-02, 5.0000000e-02, 0.0
7282, 2.8444995e-02, 5.0000000e-02, 0.0
7283, 2.8500000e-02, 5.0000000e-02, 0.0
7284, 2.9000000e-02, 5.0000000e-02, 0.0
7285, 2.9166998e-02, 5.0000000e-02, 0.0
7286, 2.9500000e-02, 5.0000000e-02, 0.0
7287, 3.0000000e-02, 5.0000000e-02, 0.0
7288, 3.0500000e-02, 5.0000000e-02, 0.0
7289, 3.1000000e-02, 5.0000000e-02, 0.0
7290, 3.1500000e-02, 5.0000000e-02, 0.0
7291, 3.1826348e-02, 5.0000000e-02, 0.0
7292, 3.2000000e-02, 5.0000000e-02, 0.0
7293, 3.2158503e-02, 5.0000000e-02, 0.0
7294, 3.2500000e-02, 5.0000000e-02, 0.0
7295, 3.3000000e-02, 5.0000000e-02, 0.0
7296, 3.3500000e-02, 5.0000000e-02, 0.0
7297, 3.4000000e-02, 5.0000000e-02, 0.0
7298, 3.4500000e-02, 5.0000000e-02, 0.0
7299, 3.5000000e-02, 5.0000000e-02, 0.0
7300, 3.5422098e-02, 5.0000000e-02, 0.0
7301, 3.5500000e-02, 5.0000000e-02, 0.0
7302, 3.5818722e-02, 5.0000000e-02, 0.0
7303, 3.6000000e-02, 5.0000000e-02, 0.0
7304, 3.6500000e-02, 5.0000000e-02, 0.0
7305, 3.7000000e-02, 5.0000000e-02, 0.0
7306, 3.7500000e-02, 5.0000000e-02, 0.0
7307, 3.8000000e-02, 5.0000000e-02, 0.0
7308, 3.8500000e-02, 5.0000000e-02, 0.0
7309, 3.8955553e-02, 5.0000000e-02, 0.0
7310, 3.9000000e-02, 5.0000000e-02, 0.0
7311, 3.9500000e-02, 5.0000000e-02, 0.0
7312, 4.0000000e-02, 5.0000000e-02, 0.0
7313, 4.0319382e-02, 5.0000000e-02, 0.0
7314, 4.0500000e-02, 5.0000000e-02, 0.0
7315, 4.1000000e-02, 5.0000000e-02, 0.0
7316, 4.1500000e-02, 5.0000000e-02, 0.0
7317, 4.2000000e-02, 5.0000000e-02, 0.0
7318, 4.2500000e-02, 5.0000000e-02, 0.0
7319, 4.2756638e-02, 5.0000000e-02, 0.0
7320, 4.3000000e-02, 5.0000000e-02, 0.0
7321, 4.3500000e-02, 5.0000000e-02, 0.0
7322, 4.4000000e-02, 5.0000000e-02, 0.0
7323, 8.0000000e-03, 5.0466142e-02, 0.0
7324, 7.5000000e-03, 5.0466142e-02, 0.0
7325, 8.5000000e-03, 5.0466142e-02, 0.0
7326, 9.0000000e-03, 5.0466142e-02, 0.0
7327, 9.5000000e-03, 5.0466142e-02, 0.0
7328, 1.0000000e-02, 5.0466142e-02, 0.0
7329, 1.0500000e-02, 5.0466142e-02, 0.0
7330, 1.1000000e-02, 5.0466142e-02, 0.0
7331, 1.1030671e-02, 5.0466142e-02, 0.0
7332, 1.1500000e-02, 5.0466142e-02, 0.0
7333, 1.2000000e-02, 5.0466142e-02, 0.0
7334, 1.2500000e-02, 5.0466142e-02, 0.0
7335, 1.3000000e-02, 5.0466142e-02, 0.0
7336, 1.3500000e-02, 5.0466142e-02, 0.0
7337, 1.4000000e-02, 5.0466142e-02, 0.0
7338, 1.4500000e-02, 5.0466142e-02, 0.0
7339, 1.4707561e-02, 5.0466142e-02, 0.0
7340, 1.4855500e-02, 5.0466142e-02, 0.0
7341, 1.5000000e-02, 5.0466142e-02, 0.0
7342, 1.5297833e-02, 5.0466142e-02, 0.0
7343, 1.5500000e-02, 5.0466142e-02, 0.0
7344, 1.6000000e-02, 5.0466142e-02, 0.0
7345, 1.6032328e-02, 5.0466142e-02, 0.0
7346, 1.6500000e-02, 5.0466142e-02, 0.0
7347, 1.7000000e-02, 5.0466142e-02, 0.0
7348, 1.7056755e-02, 5.0466142e-02, 0.0
7349, 1.7500000e-02, 5.0466142e-02, 0.0
7350, 1.8000000e-02, 5.0466142e-02, 0.0
7351, 1.8368883e-02, 5.0466142e-02, 0.0
7352, 1.8500000e-02, 5.0466142e-02, 0.0
7353, 1.9000000e-02, 5.0466142e-02, 0.0
7354, 1.9500000e-02, 5.0466142e-02, 0.0
7355, 1.9966484e-02, 5.0466142e-02, 0.0
7356, 2.0000000e-02, 5.0466142e-02, 0.0
7357, 2.0500000e-02, 5.0466142e-02, 0.0
7358, 2.1000000e-02, 5.0466142e-02, 0.0
7359, 2.1500000e-02, 5.0466142e-02, 0.0
7360, 2.1847326e-02, 5.0466142e-02, 0.0
7361, 2.2000000e-02, 5.0466142e-02, 0.0
7362, 2.2500000e-02, 5.0466142e-02, 0.0
7363, 2.2994457e-02, 5.0466142e-02, 0.0
7364, 2.3500000e-02, 5.0466142e-02, 0.0
7365, 2.3926312e-02, 5.0466142e-02, 0.0
7366, 2.4000000e-02, 5.0466142e-02, 0.0
7367, 2.4500000e-02, 5.0466142e-02, 0.0
7368, 2.5000000e-02, 5.0466142e-02, 0.0
7369, 2.5500000e-02, 5.0466142e-02, 0.0
7370, 2.5777404e-02, 5.0466142e-02, 0.0
7371, 2.6000000e-02, 5.0466142e-02, 0.0
7372, 2.6449813e-02, 5.0466142e-02, 0.0
7373, 2.6500000e-02, 5.0466142e-02, 0.0
7374, 2.7000000e-02, 5.0466142e-02, 0.0
7375, 2.7500000e-02, 5.0466142e-02, 0.0
7376, 2.8000000e-02, 5.0466142e-02, 0.0
7377, 2.8444995e-02, 5.0466142e-02, 0.0
7378, 2.8500000e-02, 5.0466142e-02, 0.0
7379, 2.9000000e-02, 5.0466142e-02, 0.0
7380, 2.9166998e-02, 5.0466142e-02, 0.0
7381, 2.9500000e-02, 5.0466142e-02, 0.0
7382, 3.0000000e-02, 5.0466142e-02, 0.0
7383, 3.0500000e-02, 5.0466142e-02, 0.0
7384, 3.1000000e-02, 5.0466142e-02, 0.0
7385, 3.1500000e-02, 5.0466142e-02, 0.0
7386, 3.1826348e-02, 5.0466142e-02, 0.0
7387, 3.2000000e-02, 5.0466142e-02, 0.0
7388, 3.2158503e-02, 5.0466142e-02, 0.0
7389, 3.2500000e-02, 5.0466142e-02, 0.0
7390, 3.3000000e-02, 5.0466142e-02, 0.0
7391, 3.3500000e-02, 5.0466142e-02, 0.0
7392, 3.4000000e-02, 5.0466142e-02, 0.0
7393, 3.4500000e-02, 5.0466142e-02, 0.0
7394, 3.5000000e-02, 5.0466142e-02, 0.0
7395, 3.5422098e-02, 5.0466142e-02, 0.0
7396, 3.5500000e-02, 5.0466142e-02, 0.0
7397, 3.5818722e-02, 5.0466142e-02, 0.0
7398, 3.6000000e-02, 5.0466142e-02, 0.0
7399, 3.6500000e-02, 5.0466142e-02, 0.0
7400, 3.7000000e-02, 5.0466142e-02, 0.0
7401, 3.7500000e-02, 5.0466142e-02, 0.0
7402, 3.8000000e-02, 5.0466142e-02, 0.0
7403, 3.8500000e-02, 5.0466142e-02, 0.0
7404, 3.8955553e-02, 5.0466142e-02, 0.0
7405, 3.9000000e-02, 5.0466142e-02, 0.0
7406, 3.9500000e-02, 5.0466142e-02, 0.0
7407, 4.0000000e-02, 5.0466142e-02, 0.0
7408, 4.0319382e-02, 5.0466142e-02, 0.0
7409, 4.0500000e-02, 5.0466142e-02, 0.0
7410, 4.1000000e-02, 5.0466142e-02, 0.0
7411, 4.1500000e-02, 5.0466142e-02, 0.0
7412, 8.0000000e-03, 5.0500000e-02, 0.0
7413, 7.5000000e-03, 5.0500000e-02, 0.0
7414, 8.5000000e-03, 5.0500000e-02, 0.0
7415, 9.0000000e-03, 5.0500000e-02, 0.0
7416, 9.5000000e-03, 5.0500000e-02, 0.0
7417, 1.0000000e-02, 5.0500000e-02, 0.0
7418, 1.0500000e-02, 5.0500000e-02, 0.0
7419, 1.1000000e-02, 5.0500000e-02, 0.0
7420, 1.1030671e-02, 5.0500000e-02, 0.0
7421, 1.1500000e-02, 5.0500000e-02, 0.0
7422, 1.2000000e-02, 5.0500000e-02, 0.0
7423, 1.2500000e-02, 5.0500000e-02, 0.0
7424, 1.3000000e-02, 5.0500000e-02, 0.0
7425, 1.3500000e-02, 5.0500000e-02, 0.0
7426, 1.4000000e-02, 5.0500000e-02, 0.0
7427, 1.4500000e-02, 5.0500000e-02, 0.0
7428, 1.4707561e-02, 5.0500000e-02, 0.0
7429, 1.4855500e-02, 5.0500000e-02, 0.0
7430, 1.5000000e-02, 5.0500000e-02, 0.0
7431, 1.5297833e-02, 5.0500000e-02, 0.0
7432, 1.5500000e-02, 5.0500000e-02, 0.0
7433, 1.6000000e-02, 5.0500000e-02, 0.0
7434, 1.6032328e-02, 5.0500000e-02, 0.0
7435, 1.6500000e-02, 5.0500000e-02, 0.0
7436, 1.7000000e-02, 5.0500000e-02, 0.0
7437, 1.7056755e-02, 5.0500000e-02, 0.0
7438, 1.7500000e-02, 5.0500000e-02, 0.0
7439, 1.8000000e-02, 5.0500000e-02, 0.0
7440, 1.8368883e-02, 5.0500000e-02, 0.0
7441, 1.8500000e-02, 5.0500000e-02, 0.0
7442, 1.9000000e-02, 5.0500000e-02, 0.0
7443, 1.9500000e-02, 5.0500000e-02, 0.0
7444, 1.9966484e-02, 5.0500000e-02, 0.0
7445, 2.0000000e-02, 5.0500000e-02, 0.0
7446, 2.0500000e-02, 5.0500000e-02, 0.0
7447, 2.1000000e-02, 5.0500000e-02, 0.0
7448, 2.1500000e-02, 5.0500000e-02, 0.0
7449, 2.1847326e-02, 5.0500000e-02, 0.0
7450, 2.2000000e-02, 5.0500000e-02, 0.0
7451, 2.2500000e-02, 5.0500000e-02, 0.0
7452, 2.2994457e-02, 5.0500000e-02, 0.0
7453, 2.3500000e-02, 5.0500000e-02, 0.0
7454, 2.3926312e-02, 5.0500000e-02, 0.0
7455, 2.4000000e-02, 5.0500000e-02, 0.0
7456, 2.4500000e-02, 5.0500000e-02, 0.0
7457, 2.5000000e-02, 5.0500000e-02, 0.0
7458, 2.5500000e-02, 5.0500000e-02, 0.0
7459, 2.5777404e-02, 5.0500000e-02, 0.0
7460, 2.6000000e-02, 5.0500000e-02, 0.0
7461, 2.6449813e-02, 5.0500000e-02, 0.0
7462, 2.6500000e-02, 5.0500000e-02, 0.0
7463, 2.7000000e-02, 5.0500000e-02, 0.0
7464, 2.7500000e-02, 5.0500000e-02, 0.0
7465, 2.8000000e-02, 5.0500000e-02, 0.0
7466, 2.8444995e-02, 5.0500000e-02, 0.0
7467, 2.8500000e-02, 5.0500000e-02, 0.0
7468, 2.9000000e-02, 5.0500000e-02, 0.0
7469, 2.9166998e-02, 5.0500000e-02, 0.0
7470, 2.9500000e-02, 5.0500000e-02, 0.0
7471, 3.0000000e-02, 5.0500000e-02, 0.0
7472, 3.0500000e-02, 5.0500000e-02, 0.0
7473, 3.1000000e-02, 5.0500000e-02, 0.0
7474, 3.1500000e-02, 5.0500000e-02, 0.0
7475, 3.1826348e-02, 5.0500000e-02, 0.0
7476, 3.2000000e-02, 5.0500000e-02, 0.0
7477, 3.2158503e-02, 5.0500000e-02, 0.0
7478, 3.2500000e-02, 5.0500000e-02, 0.0
7479, 3.3000000e-02, 5.0500000e-02, 0.0
7480, 3.3500000e-02, 5.0500000e-02, 0.0
7481, 3.4000000e-02, 5.0500000e-02, 0.0
7482, 3.4500000e-02, 5.0500000e-02, 0.0
7483, 3.5000000e-02, 5.0500000e-02, 0.0
7484, 3.5422098e-02, 5.0500000e-02, 0.0
7485, 3.5500000e-02, 5.0500000e-02, 0.0
7486, 3.5818722e-02, 5.0500000e-02, 0.0
7487, 3.6000000e-02, 5.0500000e-02, 0.0
7488, 3.6500000e-02, 5.0500000e-02, 0.0
7489, 3.7000000e-02, 5.0500000e-02, 0.0
7490, 3.7500000e-02, 5.0500000e-02, 0.0
7491, 3.8000000e-02, 5.0500000e-02, 0.0
7492, 3.8500000e-02, 5.0500000e-02, 0.0
7493, 3.8955553e-02, 5.0500000e-02, 0.0
7494, 3.9000000e-02, 5.0500000e-02, 0.0
7495, 3.9500000e-02, 5.0500000e-02, 0.0
7496, 4.0000000e-02, 5.0500000e-02, 0.0
7497, 4.0319382e-02, 5.0500000e-02, 0.0
7498, 8.0000000e-03, 5.1000000e-02, 0.0
7499, 7.5000000e-03, 5.1000000e-02, 0.0
7500, 8.5000000e-03, 5.1000000e-02, 0.0
7501, 9.0000000e-03, 5.1000000e-02, 0.0
7502, 9.5000000e-03, 5.1000000e-02, 0.0
7503, 1.0000000e-02, 5.1000000e-02, 0.0
7504, 1.0500000e-02, 5.1000000e-02, 0.0
7505, 1.1000000e-02, 5.1000000e-02, 0.0
7506, 1.1030671e-02, 5.1000000e-02, 0.0
7507, 1.1500000e-02, 5.1000000e-02, 0.0
7508, 1.2000000e-02, 5.1000000e-02, 0.0
7509, 1.2500000e-02, 5.1000000e-02, 0.0
7510, 1.3000000e-02, 5.1000000e-02, 0.0
7511, 1.3500000e-02, 5.1000000e-02, 0.0
7512, 1.4000000e-02, 5.1000000e-02, 0.0
7513, 1.4500000e-02, 5.1000000e-02, 0.0
7514, 1.4707561e-02, 5.1000000e-02, 0.0
7515, 1.4855500e-02, 5.1000000e-02, 0.0
7516, 1.5000000e-02, 5.1000000e-02, 0.0
7517, 1.5297833e-02, 5.1000000e-02, 0.0
7518, 1.5500000e-02, 5.1000000e-02, 0.0
7519, 1.6000000e-02, 5.1000000e-02, 0.0
7520, 1.6032328e-02, 5.1000000e-02, 0.0
7521, 1.6500000e-02, 5.1000000e-02, 0.0
7522, 1.7000000e-02, 5.1000000e-02, 0.0
7523, 1.7056755e-02, 5.1000000e-02, 0.0
7524, 1.7500000e-02, 5.1000000e-02, 0.0
7525, 1.8000000e-02, 5.1000000e-02, 0.0
7526, 1.8368883e-02, 5.1000000e-02, 0.0
7527, 1.8500000e-02, 5.1000000e-02, 0.0
7528, 1.9000000e-02, 5.1000000e-02, 0.0
7529, 1.9500000e-02, 5.1000000e-02, 0.0
7530, 1.9966484e-02, 5.1000000e-02, 0.0
7531, 2.0000000e-02, 5.1000000e-02, 0.0
7532, 2.0500000e-02, 5.1000000e-02, 0.0
7533, 2.1000000e-02, 5.1000000e-02, 0.0
7534, 2.1500000e-02, 5.1000000e-02, 0.0
7535, 2.1847326e-02, 5.1000000e-02, 0.0
7536, 2.2000000e-02, 5.1000000e-02, 0.0
7537, 2.2500000e-02, 5.1000000e-02, 0.0
7538, 2.2994457e-02, 5.1000000e-02, 0.0
7539, 2.3500000e-02, 5.1000000e-02, 0.0
7540, 2.3926312e-02, 5.1000000e-02, 0.0
7541, 2.4000000e-02, 5.1000000e-02, 0.0
7542, 2.4500000e-02, 5.1000000e-02, 0.0
7543, 2.5000000e-02, 5.1000000e-02, 0.0
7544, 2.5500000e-02, 5.1000000e-02, 0.0
7545, 2.5777404e-02, 5.1000000e-02, 0.0
7546, 2.6000000e-02, 5.1000000e-02, 0.0
7547, 2.6449813e-02, 5.1000000e-02, 0.0
7548, 2.6500000e-02, 5.1000000e-02, 0.0
7549, 2.7000000e-02, 5.1000000e-02, 0.0
7550, 2.7500000e-02, 5.1000000e-02, 0.0
7551, 2.8000000e-02, 5.1000000e-02, 0.0
7552, 2.8444995e-02, 5.1000000e-02, 0.0
7553, 2.8500000e-02, 5.1000000e-02, 0.0
7554, 2.9000000e-02, 5.1000000e-02, 0.0
7555, 2.9166998e-02, 5.1000000e-02, 0.0
7556, 2.9500000e-02, 5.1000000e-02, 0.0
7557, 3.0000000e-02, 5.1000000e-02, 0.0
7558, 3.0500000e-02, 5.1000000e-02, 0.0
7559, 3.1000000e-02, 5.1000000e-02, 0.0
7560, 3.1500000e-02, 5.1000000e-02, 0.0
7561, 3.1826348e-02, 5.1000000e-02, 0.0
7562, 3.2000000e-02, 5.1000000e-02, 0.0
7563, 3.2158503e-02, 5.1000000e-02, 0.0
7564, 3.2500000e-02, 5.1000000e-02, 0.0
7565, 3.3000000e-02, 5.1000000e-02, 0.0
7566, 3.3500000e-02, 5.1000000e-02, 0.0
7567, 3.4000000e-02, 5.1000000e-02, 0.0
7568, 3.4500000e-02, 5.1000000e-02, 0.0
7569, 3.5000000e-02, 5.1000000e-02, 0.0
7570, 3.5422098e-02, 5.1000000e-02, 0.0
7571, 3.5500000e-02, 5.1000000e-02, 0.0
7572, 3.5818722e-02, 5.1000000e-02, 0.0
7573, 3.6000000e-02, 5.1000000e-02, 0.0
7574, 3.6500000e-02, 5.1000000e-02, 0.0
7575, 3.7000000e-02, 5.1000000e-02, 0.0
7576, 3.7500000e-02, 5.1000000e-02, 0.0
7577, 3.8000000e-02, 5.1000000e-02, 0.0
7578, 3.8500000e-02, 5.1000000e-02, 0.0
7579, 8.0000000e-03, 5.1232173e-02, 0.0
7580, 7.5000000e-03, 5.1232173e-02, 0.0
7581, 8.5000000e-03, 5.1232173e-02, 0.0
7582, 9.0000000e-03, 5.1232173e-02, 0.0
7583, 9.5000000e-03, 5.1232173e-02, 0.0
7584, 1.0000000e-02, 5.1232173e-02, 0.0
7585, 1.0500000e-02, 5.1232173e-02, 0.0
7586, 1.1000000e-02, 5.1232173e-02, 0.0
7587, 1.1030671e-02, 5.1232173e-02, 0.0
7588, 1.1500000e-02, 5.1232173e-02, 0.0
7589, 1.2000000e-02, 5.1232173e-02, 0.0
7590, 1.2500000e-02, 5.1232173e-02, 0.0
7591, 1.3000000e-02, 5.1232173e-02, 0.0
7592, 1.3500000e-02, 5.1232173e-02, 0.0
7593, 1.4000000e-02, 5.1232173e-02, 0.0
7594, 1.4500000e-02, 5.1232173e-02, 0.0
7595, 1.4707561e-02, 5.1232173e-02, 0.0
7596, 1.4855500e-02, 5.1232173e-02, 0.0
7597, 1.5000000e-02, 5.1232173e-02, 0.0
7598, 1.5297833e-02, 5.1232173e-02, 0.0
7599, 1.5500000e-02, 5.1232173e-02, 0.0
7600, 1.6000000e-02, 5.1232173e-02, 0.0
7601, 1.6032328e-02, 5.1232173e-02, 0.0
7602, 1.6500000e-02, 5.1232173e-02, 0.0
7603, 1.7000000e-02, 5.1232173e-02, 0.0
7604, 1.7056755e-02, 5.1232173e-02, 0.0
7605, 1.7500000e-02, 5.1232173e-02, 0.0
7606, 1.8000000e-02, 5.1232173e-02, 0.0
7607, 1.8368883e-02, 5.1232173e-02, 0.0
7608, 1.8500000e-02, 5.1232173e-02, 0.0
7609, 1.9000000e-02, 5.1232173e-02, 0.0
7610, 1.9500000e-02, 5.1232173e-02, 0.0
7611, 1.9966484e-02, 5.1232173e-02, 0.0
7612, 2.0000000e-02, 5.1232173e-02, 0.0
7613, 2.0500000e-02, 5.1232173e-02, 0.0
7614, 2.1000000e-02, 5.1232173e-02, 0.0
7615, 2.1500000e-02, 5.1232173e-02, 0.0
7616, 2.1847326e-02, 5.1232173e-02, 0.0
7617, 2.2000000e-02, 5.1232173e-02, 0.0
7618, 2.2500000e-02, 5.1232173e-02, 0.0
7619, 2.2994457e-02, 5.1232173e-02, 0.0
7620, 2.3500000e-02, 5.1232173e-02, 0.0
7621, 2.3926312e-02, 5.1232173e-02, 0.0
7622, 2.4000000e-02, 5.1232173e-02, 0.0
7623, 2.4500000e-02, 5.1232173e-02, 0.0
7624, 2.5000000e-02, 5.1232173e-02, 0.0
7625, 2.5500000e-02, 5.1232173e-02, 0.0
7626, 2.5777404e-02, 5.1232173e-02, 0.0
7627, 2.6000000e-02, 5.1232173e-02, 0.0
7628, 2.6449813e-02, 5.1232173e-02, 0.0
7629, 2.6500000e-02, 5.1232173e-02, 0.0
7630, 2.7000000e-02, 5.1232173e-02, 0.0
7631, 2.7500000e-02, 5.1232173e-02, 0.0
7632, 2.8000000e-02, 5.1232173e-02, 0.0
7633, 2.8444995e-02, 5.1232173e-02, 0.0
7634, 2.8500000e-02, 5.1232173e-02, 0.0
7635, 2.9000000e-02, 5.1232173e-02, 0.0
7636, 2.9166998e-02, 5.1232173e-02, 0.0
7637, 2.9500000e-02, 5.1232173e-02, 0.0
7638, 3.0000000e-02, 5.1232173e-02, 0.0
7639, 3.0500000e-02, 5.1232173e-02, 0.0
7640, 3.1000000e-02, 5.1232173e-02, 0.0
7641, 3.1500000e-02, 5.1232173e-02, 0.0
7642, 3.1826348e-02, 5.1232173e-02, 0.0
7643, 3.2000000e-02, 5.1232173e-02, 0.0
7644, 3.2158503e-02, 5.1232173e-02, 0.0
7645, 3.2500000e-02, 5.1232173e-02, 0.0
7646, 3.3000000e-02, 5.1232173e-02, 0.0
7647, 3.3500000e-02, 5.1232173e-02, 0.0
7648, 3.4000000e-02, 5.1232173e-02, 0.0
7649, 3.4500000e-02, 5.1232173e-02, 0.0
7650, 3.5000000e-02, 5.1232173e-02, 0.0
7651, 3.5422098e-02, 5.1232173e-02, 0.0
7652, 3.5500000e-02, 5.1232173e-02, 0.0
7653, 3.5818722e-02, 5.1232173e-02, 0.0
7654, 3.6000000e-02, 5.1232173e-02, 0.0
7655, 3.6500000e-02, 5.1232173e-02, 0.0
7656, 8.0000000e-03, 5.1500000e-02, 0.0
7657, 7.5000000e-03, 5.1500000e-02, 0.0
7658, 8.5000000e-03, 5.1500000e-02, 0.0
7659, 9.0000000e-03, 5.1500000e-02, 0.0
7660, 9.5000000e-03, 5.1500000e-02, 0.0
7661, 1.0000000e-02, 5.1500000e-02, 0.0
7662, 1.0500000e-02, 5.1500000e-02, 0.0
7663, 1.1000000e-02, 5.1500000e-02, 0.0
7664, 1.1030671e-02, 5.1500000e-02, 0.0
7665, 1.1500000e-02, 5.1500000e-02, 0.0
7666, 1.2000000e-02, 5.1500000e-02, 0.0
7667, 1.2500000e-02, 5.1500000e-02, 0.0
7668, 1.3000000e-02, 5.1500000e-02, 0.0
7669, 1.3500000e-02, 5.1500000e-02, 0.0
7670, 1.4000000e-02, 5.1500000e-02, 0.0
7671, 1.4500000e-02, 5.1500000e-02, 0.0
7672, 1.4707561e-02, 5.1500000e-02, 0.0
7673, 1.4855500e-02, 5.1500000e-02, 0.0
7674, 1.5000000e-02, 5.1500000e-02, 0.0
7675, 1.5297833e-02, 5.1500000e-02, 0.0
7676, 1.5500000e-02, 5.1500000e-02, 0.0
7677, 1.6000000e-02, 5.1500000e-02, 0.0
7678, 1.6032328e-02, 5.1500000e-02, 0.0
7679, 1.6500000e-02, 5.1500000e-02, 0.0
7680, 1.7000000e-02, 5.1500000e-02, 0.0
7681, 1.7056755e-02, 5.1500000e-02, 0.0
7682, 1.7500000e-02, 5.1500000e-02, 0.0
7683, 1.8000000e-02, 5.1500000e-02, 0.0
7684, 1.8368883e-02, 5.1500000e-02, 0.0
7685, 1.8500000e-02, 5.1500000e-02, 0.0
7686, 1.9000000e-02, 5.1500000e-02, 0.0
7687, 1.9500000e-02, 5.1500000e-02, 0.0
7688, 1.9966484e-02, 5.1500000e-02, 0.0
7689, 2.0000000e-02, 5.1500000e-02, 0.0
7690, 2.0500000e-02, 5.1500000e-02, 0.0
7691, 2.1000000e-02, 5.1500000e-02, 0.0
7692, 2.1500000e-02, 5.1500000e-02, 0.0
7693, 2.1847326e-02, 5.1500000e-02, 0.0
7694, 2.2000000e-02, 5.1500000e-02, 0.0
7695, 2.2500000e-02, 5.1500000e-02, 0.0
7696, 2.2994457e-02, 5.1500000e-02, 0.0
7697, 2.3500000e-02, 5.1500000e-02, 0.0
7698, 2.3926312e-02, 5.1500000e-02, 0.0
7699, 2.4000000e-02, 5.1500000e-02, 0.0
7700, 2.4500000e-02, 5.1500000e-02, 0.0
7701, 2.5000000e-02, 5.1500000e-02, 0.0
7702, 2.5500000e-02, 5.1500000e-02, 0.0
7703, 2.5777404e-02, 5.1500000e-02, 0.0
7704, 2.6000000e-02, 5.1500000e-02, 0.0
7705, 2.6449813e-02, 5.1500000e-02, 0.0
7706, 2.6500000e-02, 5.1500000e-02, 0.0
7707, 2.7000000e-02, 5.1500000e-02, 0.0
7708, 2.7500000e-02, 5.1500000e-02, 0.0
7709, 2.8000000e-02, 5.1500000e-02, 0.0
7710, 2.8444995e-02, 5.1500000e-02, 0.0
7711, 2.8500000e-02, 5.1500000e-02, 0.0
7712, 2.9000000e-02, 5.1500000e-02, 0.0
7713, 2.9166998e-02, 5.1500000e-02, 0.0
7714, 2.9500000e-02, 5.1500000e-02, 0.0
7715, 3.0000000e-02, 5.1500000e-02, 0.0
7716, 3.0500000e-02, 5.1500000e-02, 0.0
7717, 3.1000000e-02, 5.1500000e-02, 0.0
7718, 3.1500000e-02, 5.1500000e-02, 0.0
7719, 3.1826348e-02, 5.1500000e-02, 0.0
7720, 3.2000000e-02, 5.1500000e-02, 0.0
7721, 3.2158503e-02, 5.1500000e-02, 0.0
7722, 3.2500000e-02, 5.1500000e-02, 0.0
7723, 3.3000000e-02, 5.1500000e-02, 0.0
7724, 3.3500000e-02, 5.1500000e-02, 0.0
7725, 3.4000000e-02, 5.1500000e-02, 0.0
7726, 3.4500000e-02, 5.1500000e-02, 0.0
7727, 3.5000000e-02, 5.1500000e-02, 0.0
7728, 8.0000000e-03, 5.1890059e-02, 0.0
7729, 7.5000000e-03, 5.1890059e-02, 0.0
7730, 8.5000000e-03, 5.1890059e-02, 0.0
7731, 9.0000000e-03, 5.1890059e-02, 0.0
7732, 9.5000000e-03, 5.1890059e-02, 0.0
7733, 1.0000000e-02, 5.1890059e-02, 0.0
7734, 1.0500000e-02, 5.1890059e-02, 0.0
7735, 1.1000000e-02, 5.1890059e-02, 0.0
7736, 1.1030671e-02, 5.1890059e-02, 0.0
7737, 1.1500000e-02, 5.1890059e-02, 0.0
7738, 1.2000000e-02, 5.1890059e-02, 0.0
7739, 1.2500000e-02, 5.1890059e-02, 0.0
7740, 1.3000000e-02, 5.1890059e-02, 0.0
7741, 1.3500000e-02, 5.1890059e-02, 0.0
7742, 1.4000000e-02, 5.1890059e-02, 0.0
7743, 1.4500000e-02, 5.1890059e-02, 0.0
7744, 1.4707561e-02, 5.1890059e-02, 0.0
7745, 1.4855500e-02, 5.1890059e-02, 0.0
7746, 1.5000000e-02, 5.1890059e-02, 0.0
7747, 1.5297833e-02, 5.1890059e-02, 0.0
7748, 1.5500000e-02, 5.1890059e-02, 0.0
7749, 1.6000000e-02, 5.1890059e-02, 0.0
7750, 1.6032328e-02, 5.1890059e-02, 0.0
7751, 1.6500000e-02, 5.1890059e-02, 0.0
7752, 1.7000000e-02, 5.1890059e-02, 0.0
7753, 1.7056755e-02, 5.1890059e-02, 0.0
7754, 1.7500000e-02, 5.1890059e-02, 0.0
7755, 1.8000000e-02, 5.1890059e-02, 0.0
7756, 1.8368883e-02, 5.1890059e-02, 0.0
7757, 1.8500000e-02, 5.1890059e-02, 0.0
7758, 1.9000000e-02, 5.1890059e-02, 0.0
7759, 1.9500000e-02, 5.1890059e-02, 0.0
7760, 1.9966484e-02, 5.1890059e-02, 0.0
7761, 2.0000000e-02, 5.1890059e-02, 0.0
7762, 2.0500000e-02, 5.1890059e-02, 0.0
7763, 2.1000000e-02, 5.1890059e-02, 0.0
7764, 2.1500000e-02, 5.1890059e-02, 0.0
7765, 2.1847326e-02, 5.1890059e-02, 0.0
7766, 2.2000000e-02, 5.1890059e-02, 0.0
7767, 2.2500000e-02, 5.1890059e-02, 0.0
7768, 2.2994457e-02, 5.1890059e-02, 0.0
7769, 2.3500000e-02, 5.1890059e-02, 0.0
7770, 2.3926312e-02, 5.1890059e-02, 0.0
7771, 2.4000000e-02, 5.1890059e-02, 0.0
7772, 2.4500000e-02, 5.1890059e-02, 0.0
7773, 2.5000000e-02, 5.1890059e-02, 0.0
7774, 2.5500000e-02, 5.1890059e-02, 0.0
7775, 2.5777404e-02, 5.1890059e-02, 0.0
7776, 2.6000000e-02, 5.1890059e-02, 0.0
7777, 2.6449813e-02, 5.1890059e-02, 0.0
7778, 2.6500000e-02, 5.1890059e-02, 0.0
7779, 2.7000000e-02, 5.1890059e-02, 0.0
7780, 2.7500000e-02, 5.1890059e-02, 0.0
7781, 2.8000000e-02, 5.1890059e-02, 0.0
7782, 2.8444995e-02, 5.1890059e-02, 0.0
7783, 2.8500000e-02, 5.1890059e-02, 0.0
7784, 2.9000000e-02, 5.1890059e-02, 0.0
7785, 2.9166998e-02, 5.1890059e-02, 0.0
7786, 2.9500000e-02, 5.1890059e-02, 0.0
7787, 3.0000000e-02, 5.1890059e-02, 0.0
7788, 3.0500000e-02, 5.1890059e-02, 0.0
7789, 3.1000000e-02, 5.1890059e-02, 0.0
7790, 3.1500000e-02, 5.1890059e-02, 0.0
7791, 3.1826348e-02, 5.1890059e-02, 0.0
7792, 3.2000000e-02, 5.1890059e-02, 0.0
7793, 3.2158503e-02, 5.1890059e-02, 0.0
7794, 3.2500000e-02, 5.1890059e-02, 0.0
7795, 3.3000000e-02, 5.1890059e-02, 0.0
7796, 8.0000000e-03, 5.2000000e-02, 0.0
7797, 7.5000000e-03, 5.2000000e-02, 0.0
7798, 8.5000000e-03, 5.2000000e-02, 0.0
7799, 9.0000000e-03, 5.2000000e-02, 0.0
7800, 9.5000000e-03, 5.2000000e-02, 0.0
7801, 1.0000000e-02, 5.2000000e-02, 0.0
7802, 1.0500000e-02, 5.2000000e-02, 0.0
7803, 1.1000000e-02, 5.2000000e-02, 0.0
7804, 1.1030671e-02, 5.2000000e-02, 0.0
7805, 1.1500000e-02, 5.2000000e-02, 0.0
7806, 1.2000000e-02, 5.2000000e-02, 0.0
7807, 1.2500000e-02, 5.2000000e-02, 0.0
7808, 1.3000000e-02, 5.2000000e-02, 0.0
7809, 1.3500000e-02, 5.2000000e-02, 0.0
7810, 1.4000000e-02, 5.2000000e-02, 0.0
7811, 1.4500000e-02, 5.2000000e-02, 0.0
7812, 1.4707561e-02, 5.2000000e-02, 0.0
7813, 1.4855500e-02, 5.2000000e-02, 0.0
7814, 1.5000000e-02, 5.2000000e-02, 0.0
7815, 1.5297833e-02, 5.2000000e-02, 0.0
7816, 1.5500000e-02, 5.2000000e-02, 0.0
7817, 1.6000000e-02, 5.2000000e-02, 0.0
7818, 1.6032328e-02, 5.2000000e-02, 0.0
7819, 1.6500000e-02, 5.2000000e-02, 0.0
7820, 1.7000000e-02, 5.2000000e-02, 0.0
7821, 1.7056755e-02, 5.2000000e-02, 0.0
7822, 1.7500000e-02, 5.2000000e-02, 0.0
7823, 1.8000000e-02, 5.2000000e-02, 0.0
7824, 1.8368883e-02, 5.2000000e-02, 0.0
7825, 1.8500000e-02, 5.2000000e-02, 0.0
7826, 1.9000000e-02, 5.2000000e-02, 0.0
7827, 1.9500000e-02, 5.2000000e-02, 0.0
7828, 1.9966484e-02, 5.2000000e-02, 0.0
7829, 2.0000000e-02, 5.2000000e-02, 0.0
7830, 2.0500000e-02, 5.2000000e-02, 0.0
7831, 2.1000000e-02, 5.2000000e-02, 0.0
7832, 2.1500000e-02, 5.2000000e-02, 0.0
7833, 2.1847326e-02, 5.2000000e-02, 0.0
7834, 2.2000000e-02, 5.2000000e-02, 0.0
7835, 2.2500000e-02, 5.2000000e-02, 0.0
7836, 2.2994457e-02, 5.2000000e-02, 0.0
7837, 2.3500000e-02, 5.2000000e-02, 0.0
7838, 2.3926312e-02, 5.2000000e-02, 0.0
7839, 2.4000000e-02, 5.2000000e-02, 0.0
7840, 2.4500000e-02, 5.2000000e-02, 0.0
7841, 2.5000000e-02, 5.2000000e-02, 0.0
7842, 2.5500000e-02, 5.2000000e-02, 0.0
7843, 2.5777404e-02, 5.2000000e-02, 0.0
7844, 2.6000000e-02, 5.2000000e-02, 0.0
7845, 2.6449813e-02, 5.2000000e-02, 0.0
7846, 2.6500000e-02, 5.2000000e-02, 0.0
7847, 2.7000000e-02, 5.2000000e-02, 0.0
7848, 2.7500000e-02, 5.2000000e-02, 0.0
7849, 2.8000000e-02, 5.2000000e-02, 0.0
7850, 2.8444995e-02, 5.2000000e-02, 0.0
7851, 2.8500000e-02, 5.2000000e-02, 0.0
7852, 2.9000000e-02, 5.2000000e-02, 0.0
7853, 2.9166998e-02, 5.2000000e-02, 0.0
7854, 2.9500000e-02, 5.2000000e-02, 0.0
7855, 3.0000000e-02, 5.2000000e-02, 0.0
7856, 3.0500000e-02, 5.2000000e-02, 0.0
7857, 3.1000000e-02, 5.2000000e-02, 0.0
7858, 3.1500000e-02, 5.2000000e-02, 0.0
7859, 8.0000000e-03, 5.2461428e-02, 0.0
7860, 7.5000000e-03, 5.2461428e-02, 0.0
7861, 8.5000000e-03, 5.2461428e-02, 0.0
7862, 9.0000000e-03, 5.2461428e-02, 0.0
7863, 9.5000000e-03, 5.2461428e-02, 0.0
7864, 1.0000000e-02, 5.2461428e-02, 0.0
7865, 1.0500000e-02, 5.2461428e-02, 0.0
7866, 1.1000000e-02, 5.2461428e-02, 0.0
7867, 1.1030671e-02, 5.2461428e-02, 0.0
7868, 1.1500000e-02, 5.2461428e-02, 0.0
7869, 1.2000000e-02, 5.2461428e-02, 0.0
7870, 1.2500000e-02, 5.2461428e-02, 0.0
7871, 1.3000000e-02, 5.2461428e-02, 0.0
7872, 1.3500000e-02, 5.2461428e-02, 0.0
7873, 1.4000000e-02, 5.2461428e-02, 0.0
7874, 1.4500000e-02, 5.2461428e-02, 0.0
7875, 1.4707561e-02, 5.2461428e-02, 0.0
7876, 1.4855500e-02, 5.2461428e-02, 0.0
7877, 1.5000000e-02, 5.2461428e-02, 0.0
7878, 1.5297833e-02, 5.2461428e-02, 0.0
7879, 1.5500000e-02, 5.2461428e-02, 0.0
7880, 1.6000000e-02, 5.2461428e-02, 0.0
7881, 1.6032328e-02, 5.2461428e-02, 0.0
7882, 1.6500000e-02, 5.2461428e-02, 0.0
7883, 1.7000000e-02, 5.2461428e-02, 0.0
7884, 1.7056755e-02, 5.2461428e-02, 0.0
7885, 1.7500000e-02, 5.2461428e-02, 0.0
7886, 1.8000000e-02, 5.2461428e-02, 0.0
7887, 1.8368883e-02, 5.2461428e-02, 0.0
7888, 1.8500000e-02, 5.2461428e-02, 0.0
7889, 1.9000000e-02, 5.2461428e-02, 0.0
7890, 1.9500000e-02, 5.2461428e-02, 0.0
7891, 1.9966484e-02, 5.2461428e-02, 0.0
7892, 2.0000000e-02, 5.2461428e-02, 0.0
7893, 2.0500000e-02, 5.2461428e-02, 0.0
7894, 2.1000000e-02, 5.2461428e-02, 0.0
7895, 2.1500000e-02, 5.2461428e-02, 0.0
7896, 2.1847326e-02, 5.2461428e-02, 0.0
7897, 2.2000000e-02, 5.2461428e-02, 0.0
7898, 2.2500000e-02, 5.2461428e-02, 0.0
7899, 2.2994457e-02, 5.2461428e-02, 0.0
7900, 2.3500000e-02, 5.2461428e-02, 0.0
7901, 2.3926312e-02, 5.2461428e-02, 0.0
7902, 2.4000000e-02, 5.2461428e-02, 0.0
7903, 2.4500000e-02, 5.2461428e-02, 0.0
7904, 2.5000000e-02, 5.2461428e-02, 0.0
7905, 2.5500000e-02, 5.2461428e-02, 0.0
7906, 2.5777404e-02, 5.2461428e-02, 0.0
7907, 2.6000000e-02, 5.2461428e-02, 0.0
7908, 2.6449813e-02, 5.2461428e-02, 0.0
7909, 2.6500000e-02, 5.2461428e-02, 0.0
7910, 2.7000000e-02, 5.2461428e-02, 0.0
7911, 2.7500000e-02, 5.2461428e-02, 0.0
7912, 2.8000000e-02, 5.2461428e-02, 0.0
7913, 2.8444995e-02, 5.2461428e-02, 0.0
7914, 2.8500000e-02, 5.2461428e-02, 0.0
7915, 2.9000000e-02, 5.2461428e-02, 0.0
7916, 2.9166998e-02, 5.2461428e-02, 0.0
7917, 2.9500000e-02, 5.2461428e-02, 0.0
7918, 3.0000000e-02, 5.2461428e-02, 0.0
7919, 8.0000000e-03, 5.2500000e-02, 0.0
7920, 7.5000000e-03, 5.2500000e-02, 0.0
7921, 8.5000000e-03, 5.2500000e-02, 0.0
7922, 9.0000000e-03, 5.2500000e-02, 0.0
7923, 9.5000000e-03, 5.2500000e-02, 0.0
7924, 1.0000000e-02, 5.2500000e-02, 0.0
7925, 1.0500000e-02, 5.2500000e-02, 0.0
7926, 1.1000000e-02, 5.2500000e-02, 0.0
7927, 1.1030671e-02, 5.2500000e-02, 0.0
7928, 1.1500000e-02, 5.2500000e-02, 0.0
7929, 1.2000000e-02, 5.2500000e-02, 0.0
7930, 1.2500000e-02, 5.2500000e-02, 0.0
7931, 1.3000000e-02, 5.2500000e-02, 0.0
7932, 1.3500000e-02, 5.2500000e-02, 0.0
7933, 1.4000000e-02, 5.2500000e-02, 0.0
7934, 1.4500000e-02, 5.2500000e-02, 0.0
7935, 1.4707561e-02, 5.2500000e-02, 0.0
7936, 1.4855500e-02, 5.2500000e-02, 0.0
7937, 1.5000000e-02, 5.2500000e-02, 0.0
7938, 1.5297833e-02, 5.2500000e-02, 0.0
7939, 1.5500000e-02, 5.2500000e-02, 0.0
7940, 1.6000000e-02, 5.2500000e-02, 0.0
7941, 1.6032328e-02, 5.2500000e-02, 0.0
7942, 1.6500000e-02, 5.2500000e-02, 0.0
7943, 1.7000000e-02, 5.2500000e-02, 0.0
7944, 1.7056755e-02, 5.2500000e-02, 0.0
7945, 1.7500000e-02, 5.2500000e-02, 0.0
7946, 1.8000000e-02, 5.2500000e-02, 0.0
7947, 1.8368883e-02, 5.2500000e-02, 0.0
7948, 1.8500000e-02, 5.2500000e-02, 0.0
7949, 1.9000000e-02, 5.2500000e-02, 0.0
7950, 1.9500000e-02, 5.2500000e-02, 0.0
7951, 1.9966484e-02, 5.2500000e-02, 0.0
7952, 2.0000000e-02, 5.2500000e-02, 0.0
7953, 2.0500000e-02, 5.2500000e-02, 0.0
7954, 2.1000000e-02, 5.2500000e-02, 0.0
7955, 2.1500000e-02, 5.2500000e-02, 0.0
7956, 2.1847326e-02, 5.2500000e-02, 0.0
7957, 2.2000000e-02, 5.2500000e-02, 0.0
7958, 2.2500000e-02, 5.2500000e-02, 0.0
7959, 2.2994457e-02, 5.2500000e-02, 0.0
7960, 2.3500000e-02, 5.2500000e-02, 0.0
7961, 2.3926312e-02, 5.2500000e-02, 0.0
7962, 2.4000000e-02, 5.2500000e-02, 0.0
7963, 2.4500000e-02, 5.2500000e-02, 0.0
7964, 2.5000000e-02, 5.2500000e-02, 0.0
7965, 2.5500000e-02, 5.2500000e-02, 0.0
7966, 2.5777404e-02, 5.2500000e-02, 0.0
7967, 2.6000000e-02, 5.2500000e-02, 0.0
7968, 2.6449813e-02, 5.2500000e-02, 0.0
7969, 2.6500000e-02, 5.2500000e-02, 0.0
7970, 2.7000000e-02, 5.2500000e-02, 0.0
7971, 2.7500000e-02, 5.2500000e-02, 0.0
7972, 2.8000000e-02, 5.2500000e-02, 0.0
7973, 2.8444995e-02, 5.2500000e-02, 0.0
7974, 8.0000000e-03, 5.2967910e-02, 0.0
7975, 7.5000000e-03, 5.2967910e-02, 0.0
7976, 8.5000000e-03, 5.2967910e-02, 0.0
7977, 9.0000000e-03, 5.2967910e-02, 0.0
7978, 9.5000000e-03, 5.2967910e-02, 0.0
7979, 1.0000000e-02, 5.2967910e-02, 0.0
7980, 1.0500000e-02, 5.2967910e-02, 0.0
7981, 1.1000000e-02, 5.2967910e-02, 0.0
7982, 1.1030671e-02, 5.2967910e-02, 0.0
7983, 1.1500000e-02, 5.2967910e-02, 0.0
7984, 1.2000000e-02, 5.2967910e-02, 0.0
7985, 1.2500000e-02, 5.2967910e-02, 0.0
7986, 1.3000000e-02, 5.2967910e-02, 0.0
7987, 1.3500000e-02, 5.2967910e-02, 0.0
7988, 1.4000000e-02, 5.2967910e-02, 0.0
7989, 1.4500000e-02, 5.2967910e-02, 0.0
7990, 1.4707561e-02, 5.2967910e-02, 0.0
7991, 1.4855500e-02, 5.2967910e-02, 0.0
7992, 1.5000000e-02, 5.2967910e-02, 0.0
7993, 1.5297833e-02, 5.2967910e-02, 0.0
7994, 1.5500000e-02, 5.2967910e-02, 0.0
7995, 1.6000000e-02, 5.2967910e-02, 0.0
7996, 1.6032328e-02, 5.2967910e-02, 0.0
7997, 1.6500000e-02, 5.2967910e-02, 0.0
7998, 1.7000000e-02, 5.2967910e-02, 0.0
7999, 1.7056755e-02, 5.2967910e-02, 0.0
8000, 1.7500000e-02, 5.2967910e-02, 0.0
8001, 1.8000000e-02, 5.2967910e-02, 0.0
8002, 1.8368883e-02, 5.2967910e-02, 0.0
8003, 1.8500000e-02, 5.2967910e-02, 0.0
8004, 1.9000000e-02, 5.2967910e-02, 0.0
8005, 1.9500000e-02, 5.2967910e-02, 0.0
8006, 1.9966484e-02, 5.2967910e-02, 0.0
8007, 2.0000000e-02, 5.2967910e-02, 0.0
8008, 2.0500000e-02, 5.2967910e-02, 0.0
8009, 2.1000000e-02, 5.2967910e-02, 0.0
8010, 2.1500000e-02, 5.2967910e-02, 0.0
8011, 2.1847326e-02, 5.2967910e-02, 0.0
8012, 2.2000000e-02, 5.2967910e-02, 0.0
8013, 2.2500000e-02, 5.2967910e-02, 0.0
8014, 2.2994457e-02, 5.2967910e-02, 0.0
8015, 2.3500000e-02, 5.2967910e-02, 0.0
8016, 2.3926312e-02, 5.2967910e-02, 0.0
8017, 2.4000000e-02, 5.2967910e-02, 0.0
8018, 2.4500000e-02, 5.2967910e-02, 0.0
8019, 2.5000000e-02, 5.2967910e-02, 0.0
8020, 2.5500000e-02, 5.2967910e-02, 0.0
8021, 2.5777404e-02, 5.2967910e-02, 0.0
8022, 2.6000000e-02, 5.2967910e-02, 0.0
8023, 2.6449813e-02, 5.2967910e-02, 0.0
8024, 2.6500000e-02, 5.2967910e-02, 0.0
8025, 2.7000000e-02, 5.2967910e-02, 0.0
8026, 8.0000000e-03, 5.3000000e-02, 0.0
8027, 7.5000000e-03, 5.3000000e-02, 0.0
8028, 8.5000000e-03, 5.3000000e-02, 0.0
8029, 9.0000000e-03, 5.3000000e-02, 0.0
8030, 9.5000000e-03, 5.3000000e-02, 0.0
8031, 1.0000000e-02, 5.3000000e-02, 0.0
8032, 1.0500000e-02, 5.3000000e-02, 0.0
8033, 1.1000000e-02, 5.3000000e-02, 0.0
8034, 1.1030671e-02, 5.3000000e-02, 0.0
8035, 1.1500000e-02, 5.3000000e-02, 0.0
8036, 1.2000000e-02, 5.3000000e-02, 0.0
8037, 1.2500000e-02, 5.3000000e-02, 0.0
8038, 1.3000000e-02, 5.3000000e-02, 0.0
8039, 1.3500000e-02, 5.3000000e-02, 0.0
8040, 1.4000000e-02, 5.3000000e-02, 0.0
8041, 1.4500000e-02, 5.3000000e-02, 0.0
8042, 1.4707561e-02, 5.3000000e-02, 0.0
8043, 1.4855500e-02, 5.3000000e-02, 0.0
8044, 1.5000000e-02, 5.3000000e-02, 0.0
8045, 1.5297833e-02, 5.3000000e-02, 0.0
8046, 1.5500000e-02, 5.3000000e-02, 0.0
8047, 1.6000000e-02, 5.3000000e-02, 0.0
8048, 1.6032328e-02, 5.3000000e-02, 0.0
8049, 1.6500000e-02, 5.3000000e-02, 0.0
8050, 1.7000000e-02, 5.3000000e-02, 0.0
8051, 1.7056755e-02, 5.3000000e-02, 0.0
8052, 1.7500000e-02, 5.3000000e-02, 0.0
8053, 1.8000000e-02, 5.3000000e-02, 0.0
8054, 1.8368883e-02, 5.3000000e-02, 0.0
8055, 1.8500000e-02, 5.3000000e-02, 0.0
8056, 1.9000000e-02, 5.3000000e-02, 0.0
8057, 1.9500000e-02, 5.3000000e-02, 0.0
8058, 1.9966484e-02, 5.3000000e-02, 0.0
8059, 2.0000000e-02, 5.3000000e-02, 0.0
8060, 2.0500000e-02, 5.3000000e-02, 0.0
8061, 2.1000000e-02, 5.3000000e-02, 0.0
8062, 2.1500000e-02, 5.3000000e-02, 0.0
8063, 2.1847326e-02, 5.3000000e-02, 0.0
8064, 2.2000000e-02, 5.3000000e-02, 0.0
8065, 2.2500000e-02, 5.3000000e-02, 0.0
8066, 2.2994457e-02, 5.3000000e-02, 0.0
8067, 2.3500000e-02, 5.3000000e-02, 0.0
8068, 2.3926312e-02, 5.3000000e-02, 0.0
8069, 2.4000000e-02, 5.3000000e-02, 0.0
8070, 2.4500000e-02, 5.3000000e-02, 0.0
8071, 2.5000000e-02, 5.3000000e-02, 0.0
8072, 2.5500000e-02, 5.3000000e-02, 0.0
8073, 2.5777404e-02, 5.3000000e-02, 0.0
8074, 8.0000000e-03, 5.3431134e-02, 0.0
8075, 7.5000000e-03, 5.3431134e-02, 0.0
8076, 8.5000000e-03, 5.3431134e-02, 0.0
8077, 9.0000000e-03, 5.3431134e-02, 0.0
8078, 9.5000000e-03, 5.3431134e-02, 0.0
8079, 1.0000000e-02, 5.3431134e-02, 0.0
8080, 1.0500000e-02, 5.3431134e-02, 0.0
8081, 1.1000000e-02, 5.3431134e-02, 0.0
8082, 1.1030671e-02, 5.3431134e-02, 0.0
8083, 1.1500000e-02, 5.3431134e-02, 0.0
8084, 1.2000000e-02, 5.3431134e-02, 0.0
8085, 1.2500000e-02, 5.3431134e-02, 0.0
8086, 1.3000000e-02, 5.3431134e-02, 0.0
8087, 1.3500000e-02, 5.3431134e-02, 0.0
8088, 1.4000000e-02, 5.3431134e-02, 0.0
8089, 1.4500000e-02, 5.3431134e-02, 0.0
8090, 1.4707561e-02, 5.3431134e-02, 0.0
8091, 1.4855500e-02, 5.3431134e-02, 0.0
8092, 1.5000000e-02, 5.3431134e-02, 0.0
8093, 1.5297833e-02, 5.3431134e-02, 0.0
8094, 1.5500000e-02, 5.3431134e-02, 0.0
8095, 1.6000000e-02, 5.3431134e-02, 0.0
8096, 1.6032328e-02, 5.3431134e-02, 0.0
8097, 1.6500000e-02, 5.3431134e-02, 0.0
8098, 1.7000000e-02, 5.3431134e-02, 0.0
8099, 1.7056755e-02, 5.3431134e-02, 0.0
8100, 1.7500000e-02, 5.3431134e-02, 0.0
8101, 1.8000000e-02, 5.3431134e-02, 0.0
8102, 1.8368883e-02, 5.3431134e-02, 0.0
8103, 1.8500000e-02, 5.3431134e-02, 0.0
8104, 1.9000000e-02, 5.3431134e-02, 0.0
8105, 1.9500000e-02, 5.3431134e-02, 0.0
8106, 1.9966484e-02, 5.3431134e-02, 0.0
8107, 2.0000000e-02, 5.3431134e-02, 0.0
8108, 2.0500000e-02, 5.3431134e-02, 0.0
8109, 2.1000000e-02, 5.3431134e-02, 0.0
8110, 2.1500000e-02, 5.3431134e-02, 0.0
8111, 2.1847326e-02, 5.3431134e-02, 0.0
8112, 2.2000000e-02, 5.3431134e-02, 0.0
8113, 2.2500000e-02, 5.3431134e-02, 0.0
8114, 2.2994457e-02, 5.3431134e-02, 0.0
8115, 2.3500000e-02, 5.3431134e-02, 0.0
8116, 2.3926312e-02, 5.3431134e-02, 0.0
8117, 2.4000000e-02, 5.3431134e-02, 0.0
8118, 2.4500000e-02, 5.3431134e-02, 0.0
8119, 2.5000000e-02, 5.3431134e-02, 0.0
8120, 8.0000000e-03, 5.3500000e-02, 0.0
8121, 7.5000000e-03, 5.3500000e-02, 0.0
8122, 8.5000000e-03, 5.3500000e-02, 0.0
8123, 9.0000000e-03, 5.3500000e-02, 0.0
8124, 9.5000000e-03, 5.3500000e-02, 0.0
8125, 1.0000000e-02, 5.3500000e-02, 0.0
8126, 1.0500000e-02, 5.3500000e-02, 0.0
8127, 1.1000000e-02, 5.3500000e-02, 0.0
8128, 1.1030671e-02, 5.3500000e-02, 0.0
8129, 1.1500000e-02, 5.3500000e-02, 0.0
8130, 1.2000000e-02, 5.3500000e-02, 0.0
8131, 1.2500000e-02, 5.3500000e-02, 0.0
8132, 1.3000000e-02, 5.3500000e-02, 0.0
8133, 1.3500000e-02, 5.3500000e-02, 0.0
8134, 1.4000000e-02, 5.3500000e-02, 0.0
8135, 1.4500000e-02, 5.3500000e-02, 0.0
8136, 1.4707561e-02, 5.3500000e-02, 0.0
8137, 1.4855500e-02, 5.3500000e-02, 0.0
8138, 1.5000000e-02, 5.3500000e-02, 0.0
8139, 1.5297833e-02, 5.3500000e-02, 0.0
8140, 1.5500000e-02, 5.3500000e-02, 0.0
8141, 1.6000000e-02, 5.3500000e-02, 0.0
8142, 1.6032328e-02, 5.3500000e-02, 0.0
8143, 1.6500000e-02, 5.3500000e-02, 0.0
8144, 1.7000000e-02, 5.3500000e-02, 0.0
8145, 1.7056755e-02, 5.3500000e-02, 0.0
8146, 1.7500000e-02, 5.3500000e-02, 0.0
8147, 1.8000000e-02, 5.3500000e-02, 0.0
8148, 1.8368883e-02, 5.3500000e-02, 0.0
8149, 1.8500000e-02, 5.3500000e-02, 0.0
8150, 1.9000000e-02, 5.3500000e-02, 0.0
8151, 1.9500000e-02, 5.3500000e-02, 0.0
8152, 1.9966484e-02, 5.3500000e-02, 0.0
8153, 2.0000000e-02, 5.3500000e-02, 0.0
8154, 2.0500000e-02, 5.3500000e-02, 0.0
8155, 2.1000000e-02, 5.3500000e-02, 0.0
8156, 2.1500000e-02, 5.3500000e-02, 0.0
8157, 2.1847326e-02, 5.3500000e-02, 0.0
8158, 2.2000000e-02, 5.3500000e-02, 0.0
8159, 2.2500000e-02, 5.3500000e-02, 0.0
8160, 2.2994457e-02, 5.3500000e-02, 0.0
8161, 2.3500000e-02, 5.3500000e-02, 0.0
8162, 2.3926312e-02, 5.3500000e-02, 0.0
8163, 8.0000000e-03, 5.3872728e-02, 0.0
8164, 7.5000000e-03, 5.3872728e-02, 0.0
8165, 8.5000000e-03, 5.3872728e-02, 0.0
8166, 9.0000000e-03, 5.3872728e-02, 0.0
8167, 9.5000000e-03, 5.3872728e-02, 0.0
8168, 1.0000000e-02, 5.3872728e-02, 0.0
8169, 1.0500000e-02, 5.3872728e-02, 0.0
8170, 1.1000000e-02, 5.3872728e-02, 0.0
8171, 1.1030671e-02, 5.3872728e-02, 0.0
8172, 1.1500000e-02, 5.3872728e-02, 0.0
8173, 1.2000000e-02, 5.3872728e-02, 0.0
8174, 1.2500000e-02, 5.3872728e-02, 0.0
8175, 1.3000000e-02, 5.3872728e-02, 0.0
8176, 1.3500000e-02, 5.3872728e-02, 0.0
8177, 1.4000000e-02, 5.3872728e-02, 0.0
8178, 1.4500000e-02, 5.3872728e-02, 0.0
8179, 1.4707561e-02, 5.3872728e-02, 0.0
8180, 1.4855500e-02, 5.3872728e-02, 0.0
8181, 1.5000000e-02, 5.3872728e-02, 0.0
8182, 1.5297833e-02, 5.3872728e-02, 0.0
8183, 1.5500000e-02, 5.3872728e-02, 0.0
8184, 1.6000000e-02, 5.3872728e-02, 0.0
8185, 1.6032328e-02, 5.3872728e-02, 0.0
8186, 1.6500000e-02, 5.3872728e-02, 0.0
8187, 1.7000000e-02, 5.3872728e-02, 0.0
8188, 1.7056755e-02, 5.3872728e-02, 0.0
8189, 1.7500000e-02, 5.3872728e-02, 0.0
8190, 1.8000000e-02, 5.3872728e-02, 0.0
8191, 1.8368883e-02, 5.3872728e-02, 0.0
8192, 1.8500000e-02, 5.3872728e-02, 0.0
8193, 1.9000000e-02, 5.3872728e-02, 0.0
8194, 1.9500000e-02, 5.3872728e-02, 0.0
8195, 1.9966484e-02, 5.3872728e-02, 0.0
8196, 2.0000000e-02, 5.3872728e-02, 0.0
8197, 2.0500000e-02, 5.3872728e-02, 0.0
8198, 2.1000000e-02, 5.3872728e-02, 0.0
8199, 2.1500000e-02, 5.3872728e-02, 0.0
8200, 2.1847326e-02, 5.3872728e-02, 0.0
8201, 2.2000000e-02, 5.3872728e-02, 0.0
8202, 2.2500000e-02, 5.3872728e-02, 0.0
8203, 2.2994457e-02, 5.3872728e-02, 0.0
8204, 2.3500000e-02, 5.3872728e-02, 0.0
*ELEMENT, TYPE=CAX4, ELSET=DISC
1, 1, 2, 3, 4
2, 2, 5, 6, 3
3, 5, 7, 8, 6
4, 7, 9, 10, 8
5, 9, 11, 12, 10
6, 11, 13, 14, 12
7, 13, 15, 16, 14
8, 15, 17, 18, 16
9, 4, 3, 19, 20
10, 3, 6, 21, 19
11, 6, 8, 22, 21
12, 8, 10, 23, 22
13, 10, 12, 24, 23
14, 12, 14, 25, 24
15, 14, 16, 26, 25
16, 16, 18, 27, 26
17, 18, 28, 29, 27
18, 20, 19, 30, 31
19, 19, 21, 32, 30
20, 21, 22, 33, 32
21, 22, 23, 34, 33
22, 23, 24, 35, 34
23, 24, 25, 36, 35
24, 25, 26, 37, 36
25, 26, 27, 38, 37
26, 27, 29, 39, 38
27, 29, 40, 41, 39
28, 31, 30, 42, 43
29, 30, 32, 44, 42
30, 32, 33, 45, 44
31, 33, 34, 46, 45
32, 34, 35, 47, 46
33, 35, 36, 48, 47
34, 36, 37, 49, 48
35, 37, 38, 50, 49
36, 38, 39, 51, 50
37, 39, 41, 52, 51
38, 43, 42, 53, 54
39, 42, 44, 55, 53
40, 44, 45, 56, 55
41, 45, 46, 57, 56
42, 46, 47, 58, 57
43, 47, 48, 59, 58
44, 48, 49, 60, 59
45, 49, 50, 61, 60
46, 50, 51, 62, 61
47, 51, 52, 63, 62
48, 52, 64, 65, 63
49, 54, 53, 66, 67
50, 53, 55, 68, 66
51, 55, 56, 69, 68
52, 56, 57, 70, 69
53, 57, 58, 71, 70
54, 58, 59, 72, 71
55, 59, 60, 73, 72
56, 60, 61, 74, 73
57, 61, 62, 75, 74
58, 62, 63, 76, 75
59, 63, 65, 77, 76
60, 67, 66, 78, 79
61, 66, 68, 80, 78
62, 68, 69, 81, 80
63, 69, 70, 82, 81
64, 70, 71, 83, 82
65, 71, 72, 84, 83
66, 72, 73, 85, 84
67, 73, 74, 86, 85
68, 74, 75, 87, 86
69, 75, 76, 88, 87
70, 76, 77, 89, 88
71, 77, 90, 91, 89
72, 79, 78, 92, 93
73, 78, 80, 94, 92
74, 80, 81, 95, 94
75, 81, 82, 96, 95
76, 82, 83, 97, 96
77, 83, 84, 98, 97
78, 84, 85, 99, 98
79, 85, 86, 100, 99
80, 86, 87, 101, 100
81, 87, 88, 102, 101
82, 88, 89, 103, 102
83, 89, 91, 104, 103
84, 93, 92, 105, 106
85, 92, 94, 107, 105
86, 94, 95, 108, 107
87, 95, 96, 109, 108
88, 96, 97, 110, 109
89, 97, 98, 111, 110
90, 98, 99, 112, 111
91, 99, 100, 113, 112
92, 100, 101, 114, 113
93, 101, 102, 115, 114
94, 102, 103, 116, 115
95, 103, 104, 117, 116
96, 104, 118, 119, 117
97, 106, 105, 120, 121
98, 105, 107, 122, 120
99, 107, 108, 123, 122
100, 108, 109, 124, 123
101, 109, 110, 125, 124
102, 110, 111, 126, 125
103, 111, 112, 127, 126
104, 112, 113, 128, 127
105, 113, 114, 129, 128
106, 114, 115, 130, 129
107, 115, 116, 131, 130
108, 116, 117, 132, 131
109, 117, 119, 133, 132
110, 119, 134, 135, 133
111, 121, 120, 136, 137
112, 120, 122, 138, 136
113, 122, 123, 139, 138
114, 123, 124, 140, 139
115, 124, 125, 141, 140
116, 125, 126, 142, 141
117, 126, 127, 143, 142
118, 127, 128, 144, 143
119, 128, 129, 145, 144
120, 129, 130, 146, 145
121, 130, 131, 147, 146
122, 131, 132, 148, 147
123, 132, 133, 149, 148
124, 133, 135, 150, 149
125, 137, 136, 151, 152
126, 136, 138, 153, 151
127, 138, 139, 154, 153
128, 139, 140, 155, 154
129, 140, 141, 156, 155
130, 141, 142, 157, 156
131, 142, 143, 158, 157
132, 143, 144, 159, 158
133, 144, 145, 160, 159
134, 145, 146, 161, 160
135, 146, 147, 162, 161
136, 147, 148, 163, 162
137, 148, 149, 164, 163
138, 149, 150, 165, 164
139, 150, 166, 167, 165
140, 152, 151, 168, 169
141, 151, 153, 170, 168
142, 153, 154, 171, 170
143, 154, 155, 172, 171
144, 155, 156, 173, 172
145, 156, 157, 174, 173
146, 157, 158, 175, 174
147, 158, 159, 176, 175
148, 159, 160, 177, 176
149, 160, 161, 178, 177
150, 161, 162, 179, 178
151, 162, 163, 180, 179
152, 163, 164, 181, 180
153, 164, 165, 182, 181
154, 165, 167, 183, 182
155, 167, 184, 185, 183
156, 169, 168, 186, 187
157, 168, 170, 188, 186
158, 170, 171, 189, 188
159, 171, 172, 190, 189
160, 172, 173, 191, 190
161, 173, 174, 192, 191
162, 174, 175, 193, 192
163, 175, 176, 194, 193
164, 176, 177, 195, 194
165, 177, 178, 196, 195
166, 178, 179, 197, 196
167, 179, 180, 198, 197
168, 180, 181, 199, 198
169, 181, 182, 200, 199
170, 182, 183, 201, 200
171, 183, 185, 202, 201
172, 187, 186, 203, 204
173, 186, 188, 205, 203
174, 188, 189, 206, 205
175, 189, 190, 207, 206
176, 190, 191, 208, 207
177, 191, 192, 209, 208
178, 192, 193, 210, 209
179, 193, 194, 211, 210
180, 194, 195, 212, 211
181, 195, 196, 213, 212
182, 196, 197, 214, 213
183, 197, 198, 215, 214
184, 198, 199, 216, 215
185, 199, 200, 217, 216
186, 200, 201, 218, 217
187, 201, 202, 219, 218
188, 204, 203, 220, 221
189, 203, 205, 222, 220
190, 205, 206, 223, 222
191, 206, 207, 224, 223
192, 207, 208, 225, 224
193, 208, 209, 226, 225
194, 209, 210, 227, 226
195, 210, 211, 228, 227
196, 211, 212, 229, 228
197, 212, 213, 230, 229
198, 213, 214, 231, 230
199, 214, 215, 232, 231
200, 215, 216, 233, 232
201, 216, 217, 234, 233
202, 217, 218, 235, 234
203, 218, 219, 236, 235
204, 221, 220, 237, 238
205, 220, 222, 239, 237
206, 222, 223, 240, 239
207, 223, 224, 241, 240
208, 224, 225, 242, 241
209, 225, 226, 243, 242
210, 226, 227, 244, 243
211, 227, 228, 245, 244
212, 228, 229, 246, 245
213, 229, 230, 247, 246
214, 230, 231, 248, 247
215, 231, 232, 249, 248
216, 232, 233, 250, 249
217, 233, 234, 251, 250
218, 234, 235, 252, 251
219, 235, 236, 253, 252
220, 238, 237, 254, 255
221, 237, 239, 256, 254
222, 239, 240, 257, 256
223, 240, 241, 258, 257
224, 241, 242, 259, 258
225, 242, 243, 260, 259
226, 243, 244, 261, 260
227, 244, 245, 262, 261
228, 245, 246, 263, 262
229, 246, 247, 264, 263
230, 247, 248, 265, 264
231, 248, 249, 266, 265
232, 249, 250, 267, 266
233, 250, 251, 268, 267
234, 251, 252, 269, 268
235, 252, 253, 270, 269
236, 253, 271, 272, 270
237, 255, 254, 273, 274
238, 254, 256, 275, 273
239, 256, 257, 276, 275
240, 257, 258, 277, 276
241, 258, 259, 278, 277
242, 259, 260, 279, 278
243, 260, 261, 280, 279
244, 261, 262, 281, 280
245, 262, 263, 282, 281
246, 263, 264, 283, 282
247, 264, 265, 284, 283
248, 265, 266, 285, 284
249, 266, 267, 286, 285
250, 267, 268, 287, 286
251, 268, 269, 288, 287
252, 269, 270, 289, 288
253, 270, 272, 290, 289
254, 274, 273, 291, 292
255, 273, 275, 293, 291
256, 275, 276, 294, 293
257, 276, 277, 295, 294
258, 277, 278, 296, 295
259, 278, 279, 297, 296
260, 279, 280, 298, 297
261, 280, 281, 299, 298
262, 281, 282, 300, 299
263, 282, 283, 301, 300
264, 283, 284, 302, 301
265, 284, 285, 303, 302
266, 285, 286, 304, 303
267, 286, 287, 305, 304
268, 287, 288, 306, 305
269, 288, 289, 307, 306
270, 289, 290, 308, 307
271, 292, 291, 309, 310
272, 291, 293, 311, 309
273, 293, 294, 312, 311
274, 294, 295, 313, 312
275, 295, 296, 314, 313
276, 296, 297, 315, 314
277, 297, 298, 316, 315
278, 298, 299, 317, 316
279, 299, 300, 318, 317
280, 300, 301, 319, 318
281, 301, 302, 320, 319
282, 302, 303, 321, 320
283, 303, 304, 322, 321
284, 304, 305, 323, 322
285, 305, 306, 324, 323
286, 306, 307, 325, 324
287, 307, 308, 326, 325
288, 310, 309, 327, 328
289, 309, 311, 329, 327
290, 311, 312, 330, 329
291, 312, 313, 331, 330
292, 313, 314, 332, 331
293, 314, 315, 333, 332
294, 315, 316, 334, 333
295, 316, 317, 335, 334
296, 317, 318, 336, 335
297, 318, 319, 337, 336
298, 319, 320, 338, 337
299, 320, 321, 339, 338
300, 321, 322, 340, 339
301, 322, 323, 341, 340
302, 323, 324, 342, 341
303, 324, 325, 343, 342
304, 325, 326, 344, 343
305, 328, 327, 345, 346
306, 327, 329, 347, 345
307, 329, 330, 348, 347
308, 330, 331, 349, 348
309, 331, 332, 350, 349
310, 332, 333, 351, 350
311, 333, 334, 352, 351
312, 334, 335, 353, 352
313, 335, 336, 354, 353
314, 336, 337, 355, 354
315, 337, 338, 356, 355
316, 338, 339, 357, 356
317, 339, 340, 358, 357
318, 340, 341, 359, 358
319, 341, 342, 360, 359
320, 342, 343, 361, 360
321, 343, 344, 362, 361
322, 344, 363, 364, 362
323, 346, 345, 365, 366
324, 345, 347, 367, 365
325, 347, 348, 368, 367
326, 348, 349, 369, 368
327, 349, 350, 370, 369
328, 350, 351, 371, 370
329, 351, 352, 372, 371
330, 352, 353, 373, 372
331, 353, 354, 374, 373
332, 354, 355, 375, 374
333, 355, 356, 376, 375
334, 356, 357, 377, 376
335, 357, 358, 378, 377
336, 358, 359, 379, 378
337, 359, 360, 380, 379
338, 360, 361, 381, 380
339, 361, 362, 382, 381
340, 362, 364, 383, 382
341, 366, 365, 384, 385
342, 365, 367, 386, 384
343, 367, 368, 387, 386
344, 368, 369, 388, 387
345, 369, 370, 389, 388
346, 370, 371, 390, 389
347, 371, 372, 391, 390
348, 372, 373, 392, 391
349, 373, 374, 393, 392
350, 374, 375, 394, 393
351, 375, 376, 395, 394
352, 376, 377, 396, 395
353, 377, 378, 397, 396
354, 378, 379, 398, 397
355, 379, 380, 399, 398
356, 380, 381, 400, 399
357, 381, 382, 401, 400
358, 382, 383, 402, 401
359, 385, 384, 403, 404
360, 384, 386, 405, 403
361, 386, 387, 406, 405
362, 387, 388, 407, 406
363, 388, 389, 408, 407
364, 389, 390, 409, 408
365, 390, 391, 410, 409
366, 391, 392, 411, 410
367, 392, 393, 412, 411
368, 393, 394, 413, 412
369, 394, 395, 414, 413
370, 395, 396, 415, 414
371, 396, 397, 416, 415
372, 397, 398, 417, 416
373, 398, 399, 418, 417
374, 399, 400, 419, 418
375, 400, 401, 420, 419
376, 401, 402, 421, 420
377, 402, 422, 423, 421
378, 404, 403, 424, 425
379, 403, 405, 426, 424
380, 405, 406, 427, 426
381, 406, 407, 428, 427
382, 407, 408, 429, 428
383, 408, 409, 430, 429
384, 409, 410, 431, 430
385, 410, 411, 432, 431
386, 411, 412, 433, 432
387, 412, 413, 434, 433
388, 413, 414, 435, 434
389, 414, 415, 436, 435
390, 415, 416, 437, 436
391, 416, 417, 438, 437
392, 417, 418, 439, 438
393, 418, 419, 440, 439
394, 419, 420, 441, 440
395, 420, 421, 442, 441
396, 421, 423, 443, 442
397, 425, 424, 444, 445
398, 424, 426, 446, 444
399, 426, 427, 447, 446
400, 427, 428, 448, 447
401, 428, 429, 449, 448
402, 429, 430, 450, 449
403, 430, 431, 451, 450
404, 431, 432, 452, 451
405, 432, 433, 453, 452
406, 433, 434, 454, 453
407, 434, 435, 455, 454
408, 435, 436, 456, 455
409, 436, 437, 457, 456
410, 437, 438, 458, 457
411, 438, 439, 459, 458
412, 439, 440, 460, 459
413, 440, 441, 461, 460
414, 441, 442, 462, 461
415, 442, 443, 463, 462
416, 445, 444, 464, 465
417, 444, 446, 466, 464
418, 446, 447, 467, 466
419, 447, 448, 468, 467
420, 448, 449, 469, 468
421, 449, 450, 470, 469
422, 450, 451, 471, 470
423, 451, 452, 472, 471
424, 452, 453, 473, 472
425, 453, 454, 474, 473
426, 454, 455, 475, 474
427, 455, 456, 476, 475
428, 456, 457, 477, 476
429, 457, 458, 478, 477
430, 458, 459, 479, 478
431, 459, 460, 480, 479
432, 460, 461, 481, 480
433, 461, 462, 482, 481
434, 462, 463, 483, 482
435, 465, 464, 484, 485
436, 464, 466, 486, 484
437, 466, 467, 487, 486
438, 467, 468, 488, 487
439, 468, 469, 489, 488
440, 469, 470, 490, 489
441, 470, 471, 491, 490
442, 471, 472, 492, 491
443, 472, 473, 493, 492
444, 473, 474, 494, 493
445, 474, 475, 495, 494
446, 475, 476, 496, 495
447, 476, 477, 497, 496
448, 477, 478, 498, 497
449, 478, 479, 499, 498
450, 479, 480, 500, 499
451, 480, 481, 501, 500
452, 481, 482, 502, 501
453, 482, 483, 503, 502
454, 483, 504, 505, 503
455, 485, 484, 506, 507
456, 484, 486, 508, 506
457, 486, 487, 509, 508
458, 487, 488, 510, 509
459, 488, 489, 511, 510
460, 489, 490, 512, 511
461, 490, 491, 513, 512
462, 491, 492, 514, 513
463, 492, 493, 515, 514
464, 493, 494, 516, 515
465, 494, 495, 517, 516
466, 495, 496, 518, 517
467, 496, 497, 519, 518
468, 497, 498, 520, 519
469, 498, 499, 521, 520
470, 499, 500, 522, 521
471, 500, 501, 523, 522
472, 501, 502, 524, 523
473, 502, 503, 525, 524
474, 503, 505, 526, 525
475, 507, 506, 527, 528
476, 506, 508, 529, 527
477, 508, 509, 530, 529
478, 509, 510, 531, 530
479, 510, 511, 532, 531
480, 511, 512, 533, 532
481, 512, 513, 534, 533
482, 513, 514, 535, 534
483, 514, 515, 536, 535
484, 515, 516, 537, 536
485, 516, 517, 538, 537
486, 517, 518, 539, 538
487, 518, 519, 540, 539
488, 519, 520, 541, 540
489, 520, 521, 542, 541
490, 521, 522, 543, 542
491, 522, 523, 544, 543
492, 523, 524, 545, 544
493, 524, 525, 546, 545
494, 525, 526, 547, 546
495, 526, 548, 549, 547
496, 528, 527, 550, 551
497, 527, 529, 552, 550
498, 529, 530, 553, 552
499, 530, 531, 554, 553
500, 531, 532, 555, 554
501, 532, 533, 556, 555
502, 533, 534, 557, 556
503, 534, 535, 558, 557
504, 535, 536, 559, 558
505, 536, 537, 560, 559
506, 537, 538, 561, 560
507, 538, 539, 562, 561
508, 539, 540, 563, 562
509, 540, 541, 564, 563
510, 541, 542, 565, 564
511, 542, 543, 566, 565
512, 543, 544, 567, 566
513, 544, 545, 568, 567
514, 545, 546, 569, 568
515, 546, 547, 570, 569
516, 547, 549, 571, 570
517, 551, 550, 572, 573
518, 550, 552, 574, 572
519, 552, 553, 575, 574
520, 553, 554, 576, 575
521, 554, 555, 577, 576
522, 555, 556, 578, 577
523, 556, 557, 579, 578
524, 557, 558, 580, 579
525, 558, 559, 581, 580
526, 559, 560, 582, 581
527, 560, 561, 583, 582
528, 561, 562, 584, 583
529, 562, 563, 585, 584
530, 563, 564, 586, 585
531, 564, 565, 587, 586
532, 565, 566, 588, 587
533, 566, 567, 589, 588
534, 567, 568, 590, 589
535, 568, 569, 591, 590
536, 569, 570, 592, 591
537, 570, 571, 593, 592
538, 573, 572, 594, 595
539, 572, 574, 596, 594
540, 574, 575, 597, 596
541, 575, 576, 598, 597
542, 576, 577, 599, 598
543, 577, 578, 600, 599
544, 578, 579, 601, 600
545, 579, 580, 602, 601
546, 580, 581, 603, 602
547, 581, 582, 604, 603
548, 582, 583, 605, 604
549, 583, 584, 606, 605
550, 584, 585, 607, 606
551, 585, 586, 608, 607
552, 586, 587, 609, 608
553, 587, 588, 610, 609
554, 588, 589, 611, 610
555, 589, 590, 612, 611
556, 590, 591, 613, 612
557, 591, 592, 614, 613
558, 592, 593, 615, 614
559, 593, 616, 617, 615
560, 595, 594, 618, 619
561, 594, 596, 620, 618
562, 596, 597, 621, 620
563, 597, 598, 622, 621
564, 598, 599, 623, 622
565, 599, 600, 624, 623
566, 600, 601, 625, 624
567, 601, 602, 626, 625
568, 602, 603, 627, 626
569, 603, 604, 628, 627
570, 604, 605, 629, 628
571, 605, 606, 630, 629
572, 606, 607, 631, 630
573, 607, 608, 632, 631
574, 608, 609, 633, 632
575, 609, 610, 634, 633
576, 610, 611, 635, 634
577, 611, 612, 636, 635
578, 612, 613, 637, 636
579, 613, 614, 638, 637
580, 614, 615, 639, 638
581, 615, 617, 640, 639
582, 619, 618, 641, 642
583, 618, 620, 643, 641
584, 620, 621, 644, 643
585, 621, 622, 645, 644
586, 622, 623, 646, 645
587, 623, 624, 647, 646
588, 624, 625, 648, 647
589, 625, 626, 649, 648
590, 626, 627, 650, 649
591, 627, 628, 651, 650
592, 628, 629, 652, 651
593, 629, 630, 653, 652
594, 630, 631, 654, 653
595, 631, 632, 655, 654
596, 632, 633, 656, 655
597, 633, 634, 657, 656
598, 634, 635, 658, 657
599, 635, 636, 659, 658
600, 636, 637, 660, 659
601, 637, 638, 661, 660
602, 638, 639, 662, 661
603, 639, 640, 663, 662
604, 640, 664, 665, 663
605, 642, 641, 666, 667
606, 641, 643, 668, 666
607, 643, 644, 669, 668
608, 644, 645, 670, 669
609, 645, 646, 671, 670
610, 646, 647, 672, 671
611, 647, 648, 673, 672
612, 648, 649, 674, 673
613, 649, 650, 675, 674
614, 650, 651, 676, 675
615, 651, 652, 677, 676
616, 652, 653, 678, 677
617, 653, 654, 679, 678
618, 654, 655, 680, 679
619, 655, 656, 681, 680
620, 656, 657, 682, 681
621, 657, 658, 683, 682
622, 658, 659, 684, 683
623, 659, 660, 685, 684
624, 660, 661, 686, 685
625, 661, 662, 687, 686
626, 662, 663, 688, 687
627, 663, 665, 689, 688
628, 667, 666, 690, 691
629, 666, 668, 692, 690
630, 668, 669, 693, 692
631, 669, 670, 694, 693
632, 670, 671, 695, 694
633, 671, 672, 696, 695
634, 672, 673, 697, 696
635, 673, 674, 698, 697
636, 674, 675, 699, 698
637, 675, 676, 700, 699
638, 676, 677, 701, 700
639, 677, 678, 702, 701
640, 678, 679, 703, 702
641, 679, 680, 704, 703
642, 680, 681, 705, 704
643, 681, 682, 706, 705
644, 682, 683, 707, 706
645, 683, 684, 708, 707
646, 684, 685, 709, 708
647, 685, 686, 710, 709
648, 686, 687, 711, 710
649, 687, 688, 712, 711
650, 688, 689, 713, 712
651, 691, 690, 714, 715
652, 690, 692, 716, 714
653, 692, 693, 717, 716
654, 693, 694, 718, 717
655, 694, 695, 719, 718
656, 695, 696, 720, 719
657, 696, 697, 721, 720
658, 697, 698, 722, 721
659, 698, 699, 723, 722
660, 699, 700, 724, 723
661, 700, 701, 725, 724
662, 701, 702, 726, 725
663, 702, 703, 727, 726
664, 703, 704, 728, 727
665, 704, 705, 729, 728
666, 705, 706, 730, 729
667, 706, 707, 731, 730
668, 707, 708, 732, 731
669, 708, 709, 733, 732
670, 709, 710, 734, 733
671, 710, 711, 735, 734
672, 711, 712, 736, 735
673, 712, 713, 737, 736
674, 713, 738, 739, 737
675, 715, 714, 740, 741
676, 714, 716, 742, 740
677, 716, 717, 743, 742
678, 717, 718, 744, 743
679, 718, 719, 745, 744
680, 719, 720, 746, 745
681, 720, 721, 747, 746
682, 721, 722, 748, 747
683, 722, 723, 749, 748
684, 723, 724, 750, 749
685, 724, 725, 751, 750
686, 725, 726, 752, 751
687, 726, 727, 753, 752
688, 727, 728, 754, 753
689, 728, 729, 755, 754
690, 729, 730, 756, 755
691, 730, 731, 757, 756
692, 731, 732, 758, 757
693, 732, 733, 759, 758
694, 733, 734, 760, 759
695, 734, 735, 761, 760
696, 735, 736, 762, 761
697, 736, 737, 763, 762
698, 737, 739, 764, 763
699, 739, 765, 766, 764
700, 741, 740, 767, 768
701, 740, 742, 769, 767
702, 742, 743, 770, 769
703, 743, 744, 771, 770
704, 744, 745, 772, 771
705, 745, 746, 773, 772
706, 746, 747, 774, 773
707, 747, 748, 775, 774
708, 748, 749, 776, 775
709, 749, 750, 777, 776
710, 750, 751, 778, 777
711, 751, 752, 779, 778
712, 752, 753, 780, 779
713, 753, 754, 781, 780
714, 754, 755, 782, 781
715, 755, 756, 783, 782
716, 756, 757, 784, 783
717, 757, 758, 785, 784
718, 758, 759, 786, 785
719, 759, 760, 787, 786
720, 760, 761, 788, 787
721, 761, 762, 789, 788
722, 762, 763, 790, 789
723, 763, 764, 791, 790
724, 764, 766, 792, 791
725, 768, 767, 793, 794
726, 767, 769, 795, 793
727, 769, 770, 796, 795
728, 770, 771, 797, 796
729, 771, 772, 798, 797
730, 772, 773, 799, 798
731, 773, 774, 800, 799
732, 774, 775, 801, 800
733, 775, 776, 802, 801
734, 776, 777, 803, 802
735, 777, 778, 804, 803
736, 778, 779, 805, 804
737, 779, 780, 806, 805
738, 780, 781, 807, 806
739, 781, 782, 808, 807
740, 782, 783, 809, 808
741, 783, 784, 810, 809
742, 784, 785, 811, 810
743, 785, 786, 812, 811
744, 786, 787, 813, 812
745, 787, 788, 814, 813
746, 788, 789, 815, 814
747, 789, 790, 816, 815
748, 790, 791, 817, 816
749, 791, 792, 818, 817
750, 792, 819, 820, 818
751, 794, 793, 821, 822
752, 793, 795, 823, 821
753, 795, 796, 824, 823
754, 796, 797, 825, 824
755, 797, 798, 826, 825
756, 798, 799, 827, 826
757, 799, 800, 828, 827
758, 800, 801, 829, 828
759, 801, 802, 830, 829
760, 802, 803, 831, 830
761, 803, 804, 832, 831
762, 804, 805, 833, 832
763, 805, 806, 834, 833
764, 806, 807, 835, 834
765, 807, 808, 836, 835
766, 808, 809, 837, 836
767, 809, 810, 838, 837
768, 810, 811, 839, 838
769, 811, 812, 840, 839
770, 812, 813, 841, 840
771, 813, 814, 842, 841
772, 814, 815, 843, 842
773, 815, 816, 844, 843
774, 816, 817, 845, 844
775, 817, 818, 846, 845
776, 818, 820, 847, 846
777, 822, 821, 848, 849
778, 821, 823, 850, 848
779, 823, 824, 851, 850
780, 824, 825, 852, 851
781, 825, 826, 853, 852
782, 826, 827, 854, 853
783, 827, 828, 855, 854
784, 828, 829, 856, 855
785, 829, 830, 857, 856
786, 830, 831, 858, 857
787, 831, 832, 859, 858
788, 832, 833, 860, 859
789, 833, 834, 861, 860
790, 834, 835, 862, 861
791, 835, 836, 863, 862
792, 836, 837, 864, 863
793, 837, 838, 865, 864
794, 838, 839, 866, 865
795, 839, 840, 867, 866
796, 840, 841, 868, 867
797, 841, 842, 869, 868
798, 842, 843, 870, 869
799, 843, 844, 871, 870
800, 844, 845, 872, 871
801, 845, 846, 873, 872
802, 846, 847, 874, 873
803, 847, 875, 876, 874
804, 849, 848, 877, 878
805, 848, 850, 879, 877
806, 850, 851, 880, 879
807, 851, 852, 881, 880
808, 852, 853, 882, 881
809, 853, 854, 883, 882
810, 854, 855, 884, 883
811, 855, 856, 885, 884
812, 856, 857, 886, 885
813, 857, 858, 887, 886
814, 858, 859, 888, 887
815, 859, 860, 889, 888
816, 860, 861, 890, 889
817, 861, 862, 891, 890
818, 862, 863, 892, 891
819, 863, 864, 893, 892
820, 864, 865, 894, 893
821, 865, 866, 895, 894
822, 866, 867, 896, 895
823, 867, 868, 897, 896
824, 868, 869, 898, 897
825, 869, 870, 899, 898
826, 870, 871, 900, 899
827, 871, 872, 901, 900
828, 872, 873, 902, 901
829, 873, 874, 903, 902
830, 874, 876, 904, 903
831, 878, 877, 905, 906
832, 877, 879, 907, 905
833, 879, 880, 908, 907
834, 880, 881, 909, 908
835, 881, 882, 910, 909
836, 882, 883, 911, 910
837, 883, 884, 912, 911
838, 884, 885, 913, 912
839, 885, 886, 914, 913
840, 886, 887, 915, 914
841, 887, 888, 916, 915
842, 888, 889, 917, 916
843, 889, 890, 918, 917
844, 890, 891, 919, 918
845, 891, 892, 920, 919
846, 892, 893, 921, 920
847, 893, 894, 922, 921
848, 894, 895, 923, 922
849, 895, 896, 924, 923
850, 896, 897, 925, 924
851, 897, 898, 926, 925
852, 898, 899, 927, 926
853, 899, 900, 928, 927
854, 900, 901, 929, 928
855, 901, 902, 930, 929
856, 902, 903, 931, 930
857, 903, 904, 932, 931
858, 904, 933, 934, 932
859, 906, 905, 935, 936
860, 905, 907, 937, 935
861, 907, 908, 938, 937
862, 908, 909, 939, 938
863, 909, 910, 940, 939
864, 910, 911, 941, 940
865, 911, 912, 942, 941
866, 912, 913, 943, 942
867, 913, 914, 944, 943
868, 914, 915, 945, 944
869, 915, 916, 946, 945
870, 916, 917, 947, 946
871, 917, 918, 948, 947
872, 918, 919, 949, 948
873, 919, 920, 950, 949
874, 920, 921, 951, 950
875, 921, 922, 952, 951
876, 922, 923, 953, 952
877, 923, 924, 954, 953
878, 924, 925, 955, 954
879, 925, 926, 956, 955
880, 926, 927, 957, 956
881, 927, 928, 958, 957
882, 928, 929, 959, 958
883, 929, 930, 960, 959
884, 930, 931, 961, 960
885, 931, 932, 962, 961
886, 932, 934, 963, 962
887, 936, 935, 964, 965
888, 935, 937, 966, 964
889, 937, 938, 967, 966
890, 938, 939, 968, 967
891, 939, 940, 969, 968
892, 940, 941, 970, 969
893, 941, 942, 971, 970
894, 942, 943, 972, 971
895, 943, 944, 973, 972
896, 944, 945, 974, 973
897, 945, 946, 975, 974
898, 946, 947, 976, 975
899, 947, 948, 977, 976
900, 948, 949, 978, 977
901, 949, 950, 979, 978
902, 950, 951, 980, 979
903, 951, 952, 981, 980
904, 952, 953, 982, 981
905, 953, 954, 983, 982
906, 954, 955, 984, 983
907, 955, 956, 985, 984
908, 956, 957, 986, 985
909, 957, 958, 987, 986
910, 958, 959, 988, 987
911, 959, 960, 989, 988
912, 960, 961, 990, 989
913, 961, 962, 991, 990
914, 962, 963, 992, 991
915, 963, 993, 994, 992
916, 965, 964, 995, 996
917, 964, 966, 997, 995
918, 966, 967, 998, 997
919, 967, 968, 999, 998
920, 968, 969, 1000, 999
921, 969, 970, 1001, 1000
922, 970, 971, 1002, 1001
923, 971, 972, 1003, 1002
924, 972, 973, 1004, 1003
925, 973, 974, 1005, 1004
926, 974, 975, 1006, 1005
927, 975, 976, 1007, 1006
928, 976, 977, 1008, 1007
929, 977, 978, 1009, 1008
930, 978, 979, 1010, 1009
931, 979, 980, 1011, 1010
932, 980, 981, 1012, 1011
933, 981, 982, 1013, 1012
934, 982, 983, 1014, 1013
935, 983, 984, 1015, 1014
936, 984, 985, 1016, 1015
937, 985, 986, 1017, 1016
938, 986, 987, 1018, 1017
939, 987, 988, 1019, 1018
940, 988, 989, 1020, 1019
941, 989, 990, 1021, 1020
942, 990, 991, 1022, 1021
943, 991, 992, 1023, 1022
944, 992, 994, 1024, 1023
945, 994, 1025, 1026, 1024
946, 996, 995, 1027, 1028
947, 995, 997, 1029, 1027
948, 997, 998, 1030, 1029
949, 998, 999, 1031, 1030
950, 999, 1000, 1032, 1031
951, 1000, 1001, 1033, 1032
952, 1001, 1002, 1034, 1033
953, 1002, 1003, 1035, 1034
954, 1003, 1004, 1036, 1035
955, 1004, 1005, 1037, 1036
956, 1005, 1006, 1038, 1037
957, 1006, 1007, 1039, 1038
958, 1007, 1008, 1040, 1039
959, 1008, 1009, 1041, 1040
960, 1009, 1010, 1042, 1041
961, 1010, 1011, 1043, 1042
962, 1011, 1012, 1044, 1043
963, 1012, 1013, 1045, 1044
964, 1013, 1014, 1046, 1045
965, 1014, 1015, 1047, 1046
966, 1015, 1016, 1048, 1047
967, 1016, 1017, 1049, 1048
968, 1017, 1018, 1050, 1049
969, 1018, 1019, 1051, 1050
970, 1019, 1020, 1052, 1051
971, 1020, 1021, 1053, 1052
972, 1021, 1022, 1054, 1053
973, 1022, 1023, 1055, 1054
974, 1023, 1024, 1056, 1055
975, 1024, 1026, 1057, 1056
976, 1028, 1027, 1058, 1059
977, 1027, 1029, 1060, 1058
978, 1029, 1030, 1061, 1060
979, 1030, 1031, 1062, 1061
980, 1031, 1032, 1063, 1062
981, 1032, 1033, 1064, 1063
982, 1033, 1034, 1065, 1064
983, 1034, 1035, 1066, 1065
984, 1035, 1036, 1067, 1066
985, 1036, 1037, 1068, 1067
986, 1037, 1038, 1069, 1068
987, 1038, 1039, 1070, 1069
988, 1039, 1040, 1071, 1070
989, 1040, 1041, 1072, 1071
990, 1041, 1042, 1073, 1072
991, 1042, 1043, 1074, 1073
992, 1043, 1044, 1075, 1074
993, 1044, 1045, 1076, 1075
994, 1045, 1046, 1077, 1076
995, 1046, 1047, 1078, 1077
996, 1047, 1048, 1079, 1078
997, 1048, 1049, 1080, 1079
998, 1049, 1050, 1081, 1080
999, 1050, 1051, 1082, 1081
1000, 1051, 1052, 1083, 1082
1001, 1052, 1053, 1084, 1083
1002, 1053, 1054, 1085, 1084
1003, 1054, 1055, 1086, 1085
1004, 1055, 1056, 1087, 1086
1005, 1056, 1057, 1088, 1087
1006, 1057, 1089, 1090, 1088
1007, 1059, 1058, 1091, 1092
1008, 1058, 1060, 1093, 1091
1009, 1060, 1061, 1094, 1093
1010, 1061, 1062, 1095, 1094
1011, 1062, 1063, 1096, 1095
1012, 1063, 1064, 1097, 1096
1013, 1064, 1065, 1098, 1097
1014, 1065, 1066, 1099, 1098
1015, 1066, 1067, 1100, 1099
1016, 1067, 1068, 1101, 1100
1017, 1068, 1069, 1102, 1101
1018, 1069, 1070, 1103, 1102
1019, 1070, 1071, 1104, 1103
1020, 1071, 1072, 1105, 1104
1021, 1072, 1073, 1106, 1105
1022, 1073, 1074, 1107, 1106
1023, 1074, 1075, 1108, 1107
1024, 1075, 1076, 1109, 1108
1025, 1076, 1077, 1110, 1109
1026, 1077, 1078, 1111, 1110
1027, 1078, 1079, 1112, 1111
1028, 1079, 1080, 1113, 1112
1029, 1080, 1081, 1114, 1113
1030, 1081, 1082, 1115, 1114
1031, 1082, 1083, 1116, 1115
1032, 1083, 1084, 1117, 1116
1033, 1084, 1085, 1118, 1117
1034, 1085, 1086, 1119, 1118
1035, 1086, 1087, 1120, 1119
1036, 1087, 1088, 1121, 1120
1037, 1088, 1090, 1122, 1121
1038, 1090, 1123, 1124, 1122
1039, 1092, 1091, 1125, 1126
1040, 1091, 1093, 1127, 1125
1041, 1093, 1094, 1128, 1127
1042, 1094, 1095, 1129, 1128
1043, 1095, 1096, 1130, 1129
1044, 1096, 1097, 1131, 1130
1045, 1097, 1098, 1132, 1131
1046, 1098, 1099, 1133, 1132
1047, 1099, 1100, 1134, 1133
1048, 1100, 1101, 1135, 1134
1049, 1101, 1102, 1136, 1135
1050, 1102, 1103, 1137, 1136
1051, 1103, 1104, 1138, 1137
1052, 1104, 1105, 1139, 1138
1053, 1105, 1106, 1140, 1139
1054, 1106, 1107, 1141, 1140
1055, 1107, 1108, 1142, 1141
1056, 1108, 1109, 1143, 1142
1057, 1109, 1110, 1144, 1143
1058, 1110, 1111, 1145, 1144
1059, 1111, 1112, 1146, 1145
1060, 1112, 1113, 1147, 1146
1061, 1113, 1114, 1148, 1147
1062, 1114, 1115, 1149, 1148
1063, 1115, 1116, 1150, 1149
1064, 1116, 1117, 1151, 1150
1065, 1117, 1118, 1152, 1151
1066, 1118, 1119, 1153, 1152
1067, 1119, 1120, 1154, 1153
1068, 1120, 1121, 1155, 1154
1069, 1121, 1122, 1156, 1155
1070, 1122, 1124, 1157, 1156
1071, 1126, 1125, 1158, 1159
1072, 1125, 1127, 1160, 1158
1073, 1127, 1128, 1161, 1160
1074, 1128, 1129, 1162, 1161
1075, 1129, 1130, 1163, 1162
1076, 1130, 1131, 1164, 1163
1077, 1131, 1132, 1165, 1164
1078, 1132, 1133, 1166, 1165
1079, 1133, 1134, 1167, 1166
1080, 1134, 1135, 1168, 1167
1081, 1135, 1136, 1169, 1168
1082, 1136, 1137, 1170, 1169
1083, 1137, 1138, 1171, 1170
1084, 1138, 1139, 1172, 1171
1085, 1139, 1140, 1173, 1172
1086, 1140, 1141, 1174, 1173
1087, 1141, 1142, 1175, 1174
1088, 1142, 1143, 1176, 1175
1089, 1143, 1144, 1177, 1176
1090, 1144, 1145, 1178, 1177
1091, 1145, 1146, 1179, 1178
1092, 1146, 1147, 1180, 1179
1093, 1147, 1148, 1181, 1180
1094, 1148, 1149, 1182, 1181
1095, 1149, 1150, 1183, 1182
1096, 1150, 1151, 1184, 1183
1097, 1151, 1152, 1185, 1184
1098, 1152, 1153, 1186, 1185
1099, 1153, 1154, 1187, 1186
1100, 1154, 1155, 1188, 1187
1101, 1155, 1156, 1189, 1188
1102, 1156, 1157, 1190, 1189
1103, 1157, 1191, 1192, 1190
1104, 1159, 1158, 1193, 1194
1105, 1158, 1160, 1195, 1193
1106, 1160, 1161, 1196, 1195
1107, 1161, 1162, 1197, 1196
1108, 1162, 1163, 1198, 1197
1109, 1163, 1164, 1199, 1198
1110, 1164, 1165, 1200, 1199
1111, 1165, 1166, 1201, 1200
1112, 1166, 1167, 1202, 1201
1113, 1167, 1168, 1203, 1202
1114, 1168, 1169, 1204, 1203
1115, 1169, 1170, 1205, 1204
1116, 1170, 1171, 1206, 1205
1117, 1171, 1172, 1207, 1206
1118, 1172, 1173, 1208, 1207
1119, 1173, 1174, 1209, 1208
1120, 1174, 1175, 1210, 1209
1121, 1175, 1176, 1211, 1210
1122, 1176, 1177, 1212, 1211
1123, 1177, 1178, 1213, 1212
1124, 1178, 1179, 1214, 1213
1125, 1179, 1180, 1215, 1214
1126, 1180, 1181, 1216, 1215
1127, 1181, 1182, 1217, 1216
1128, 1182, 1183, 1218, 1217
1129, 1183, 1184, 1219, 1218
1130, 1184, 1185, 1220, 1219
1131, 1185, 1186, 1221, 1220
1132, 1186, 1187, 1222, 1221
1133, 1187, 1188, 1223, 1222
1134, 1188, 1189, 1224, 1223
1135, 1189, 1190, 1225, 1224
1136, 1190, 1192, 1226, 1225
1137, 1192, 1227, 1228, 1226
1138, 1194, 1193, 1229, 1230
1139, 1193, 1195, 1231, 1229
1140, 1195, 1196, 1232, 1231
1141, 1196, 1197, 1233, 1232
1142, 1197, 1198, 1234, 1233
1143, 1198, 1199, 1235, 1234
1144, 1199, 1200, 1236, 1235
1145, 1200, 1201, 1237, 1236
1146, 1201, 1202, 1238, 1237
1147, 1202, 1203, 1239, 1238
1148, 1203, 1204, 1240, 1239
1149, 1204, 1205, 1241, 1240
1150, 1205, 1206, 1242, 1241
1151, 1206, 1207, 1243, 1242
1152, 1207, 1208, 1244, 1243
1153, 1208, 1209, 1245, 1244
1154, 1209, 1210, 1246, 1245
1155, 1210, 1211, 1247, 1246
1156, 1211, 1212, 1248, 1247
1157, 1212, 1213, 1249, 1248
1158, 1213, 1214, 1250, 1249
1159, 1214, 1215, 1251, 1250
1160, 1215, 1216, 1252, 1251
1161, 1216, 1217, 1253, 1252
1162, 1217, 1218, 1254, 1253
1163, 1218, 1219, 1255, 1254
1164, 1219, 1220, 1256, 1255
1165, 1220, 1221, 1257, 1256
1166, 1221, 1222, 1258, 1257
1167, 1222, 1223, 1259, 1258
1168, 1223, 1224, 1260, 1259
1169, 1224, 1225, 1261, 1260
1170, 1225, 1226, 1262, 1261
1171, 1226, 1228, 1263, 1262
1172, 1228, 1264, 1265, 1263
1173, 1230, 1229, 1266, 1267
1174, 1229, 1231, 1268, 1266
1175, 1231, 1232, 1269, 1268
1176, 1232, 1233, 1270, 1269
1177, 1233, 1234, 1271, 1270
1178, 1234, 1235, 1272, 1271
1179, 1235, 1236, 1273, 1272
1180, 1236, 1237, 1274, 1273
1181, 1237, 1238, 1275, 1274
1182, 1238, 1239, 1276, 1275
1183, 1239, 1240, 1277, 1276
1184, 1240, 1241, 1278, 1277
1185, 1241, 1242, 1279, 1278
1186, 1242, 1243, 1280, 1279
1187, 1243, 1244, 1281, 1280
1188, 1244, 1245, 1282, 1281
1189, 1245, 1246, 1283, 1282
1190, 1246, 1247, 1284, 1283
1191, 1247, 1248, 1285, 1284
1192, 1248, 1249, 1286, 1285
1193, 1249, 1250, 1287, 1286
1194, 1250, 1251, 1288, 1287
1195, 1251, 1252, 1289, 1288
1196, 1252, 1253, 1290, 1289
1197, 1253, 1254, 1291, 1290
1198, 1254, 1255, 1292, 1291
1199, 1255, 1256, 1293, 1292
1200, 1256, 1257, 1294, 1293
1201, 1257, 1258, 1295, 1294
1202, 1258, 1259, 1296, 1295
1203, 1259, 1260, 1297, 1296
1204, 1260, 1261, 1298, 1297
1205, 1261, 1262, 1299, 1298
1206, 1262, 1263, 1300, 1299
1207, 1263, 1265, 1301, 1300
1208, 1265, 1302, 1303, 1301
1209, 1267, 1266, 1304, 1305
1210, 1266, 1268, 1306, 1304
1211, 1268, 1269, 1307, 1306
1212, 1269, 1270, 1308, 1307
1213, 1270, 1271, 1309, 1308
1214, 1271, 1272, 1310, 1309
1215, 1272, 1273, 1311, 1310
1216, 1273, 1274, 1312, 1311
1217, 1274, 1275, 1313, 1312
1218, 1275, 1276, 1314, 1313
1219, 1276, 1277, 1315, 1314
1220, 1277, 1278, 1316, 1315
1221, 1278, 1279, 1317, 1316
1222, 1279, 1280, 1318, 1317
1223, 1280, 1281, 1319, 1318
1224, 1281, 1282, 1320, 1319
1225, 1282, 1283, 1321, 1320
1226, 1283, 1284, 1322, 1321
1227, 1284, 1285, 1323, 1322
1228, 1285, 1286, 1324, 1323
1229, 1286, 1287, 1325, 1324
1230, 1287, 1288, 1326, 1325
1231, 1288, 1289, 1327, 1326
1232, 1289, 1290, 1328, 1327
1233, 1290, 1291, 1329, 1328
1234, 1291, 1292, 1330, 1329
1235, 1292, 1293, 1331, 1330
1236, 1293, 1294, 1332, 1331
1237, 1294, 1295, 1333, 1332
1238, 1295, 1296, 1334, 1333
1239, 1296, 1297, 1335, 1334
1240, 1297, 1298, 1336, 1335
1241, 1298, 1299, 1337, 1336
1242, 1299, 1300, 1338, 1337
1243, 1300, 1301, 1339, 1338
1244, 1301, 1303, 1340, 1339
1245, 1303, 1341, 1342, 1340
1246, 1305, 1304, 1343, 1344
1247, 1304, 1306, 1345, 1343
1248, 1306, 1307, 1346, 1345
1249, 1307, 1308, 1347, 1346
1250, 1308, 1309, 1348, 1347
1251, 1309, 1310, 1349, 1348
1252, 1310, 1311, 1350, 1349
1253, 1311, 1312, 1351, 1350
1254, 1312, 1313, 1352, 1351
1255, 1313, 1314, 1353, 1352
1256, 1314, 1315, 1354, 1353
1257, 1315, 1316, 1355, 1354
1258, 1316, 1317, 1356, 1355
1259, 1317, 1318, 1357, 1356
1260, 1318, 1319, 1358, 1357
1261, 1319, 1320, 1359, 1358
1262, 1320, 1321, 1360, 1359
1263, 1321, 1322, 1361, 1360
1264, 1322, 1323, 1362, 1361
1265, 1323, 1324, 1363, 1362
1266, 1324, 1325, 1364, 1363
1267, 1325, 1326, 1365, 1364
1268, 1326, 1327, 1366, 1365
1269, 1327, 1328, 1367, 1366
1270, 1328, 1329, 1368, 1367
1271, 1329, 1330, 1369, 1368
1272, 1330, 1331, 1370, 1369
1273, 1331, 1332, 1371, 1370
1274, 1332, 1333, 1372, 1371
1275, 1333, 1334, 1373, 1372
1276, 1334, 1335, 1374, 1373
1277, 1335, 1336, 1375, 1374
1278, 1336, 1337, 1376, 1375
1279, 1337, 1338, 1377, 1376
1280, 1338, 1339, 1378, 1377
1281, 1339, 1340, 1379, 1378
1282, 1340, 1342, 1380, 1379
1283, 1344, 1343, 1381, 1382
1284, 1343, 1345, 1383, 1381
1285, 1345, 1346, 1384, 1383
1286, 1346, 1347, 1385, 1384
1287, 1347, 1348, 1386, 1385
1288, 1348, 1349, 1387, 1386
1289, 1349, 1350, 1388, 1387
1290, 1350, 1351, 1389, 1388
1291, 1351, 1352, 1390, 1389
1292, 1352, 1353, 1391, 1390
1293, 1353, 1354, 1392, 1391
1294, 1354, 1355, 1393, 1392
1295, 1355, 1356, 1394, 1393
1296, 1356, 1357, 1395, 1394
1297, 1357, 1358, 1396, 1395
1298, 1358, 1359, 1397, 1396
1299, 1359, 1360, 1398, 1397
1300, 1360, 1361, 1399, 1398
1301, 1361, 1362, 1400, 1399
1302, 1362, 1363, 1401, 1400
1303, 1363, 1364, 1402, 1401
1304, 1364, 1365, 1403, 1402
1305, 1365, 1366, 1404, 1403
1306, 1366, 1367, 1405, 1404
1307, 1367, 1368, 1406, 1405
1308, 1368, 1369, 1407, 1406
1309, 1369, 1370, 1408, 1407
1310, 1370, 1371, 1409, 1408
1311, 1371, 1372, 1410, 1409
1312, 1372, 1373, 1411, 1410
1313, 1373, 1374, 1412, 1411
1314, 1374, 1375, 1413, 1412
1315, 1375, 1376, 1414, 1413
1316, 1376, 1377, 1415, 1414
1317, 1377, 1378, 1416, 1415
1318, 1378, 1379, 1417, 1416
1319, 1379, 1380, 1418, 1417
1320, 1380, 1419, 1420, 1418
1321, 1382, 1381, 1421, 1422
1322, 1381, 1383, 1423, 1421
1323, 1383, 1384, 1424, 1423
1324, 1384, 1385, 1425, 1424
1325, 1385, 1386, 1426, 1425
1326, 1386, 1387, 1427, 1426
1327, 1387, 1388, 1428, 1427
1328, 1388, 1389, 1429, 1428
1329, 1389, 1390, 1430, 1429
1330, 1390, 1391, 1431, 1430
1331, 1391, 1392, 1432, 1431
1332, 1392, 1393, 1433, 1432
1333, 1393, 1394, 1434, 1433
1334, 1394, 1395, 1435, 1434
1335, 1395, 1396, 1436, 1435
1336, 1396, 1397, 1437, 1436
1337, 1397, 1398, 1438, 1437
1338, 1398, 1399, 1439, 1438
1339, 1399, 1400, 1440, 1439
1340, 1400, 1401, 1441, 1440
1341, 1401, 1402, 1442, 1441
1342, 1402, 1403, 1443, 1442
1343, 1403, 1404, 1444, 1443
1344, 1404, 1405, 1445, 1444
1345, 1405, 1406, 1446, 1445
1346, 1406, 1407, 1447, 1446
1347, 1407, 1408, 1448, 1447
1348, 1408, 1409, 1449, 1448
1349, 1409, 1410, 1450, 1449
1350, 1410, 1411, 1451, 1450
1351, 1411, 1412, 1452, 1451
1352, 1412, 1413, 1453, 1452
1353, 1413, 1414, 1454, 1453
1354, 1414, 1415, 1455, 1454
1355, 1415, 1416, 1456, 1455
1356, 1416, 1417, 1457, 1456
1357, 1417, 1418, 1458, 1457
1358, 1418, 1420, 1459, 1458
1359, 1420, 1460, 1461, 1459
1360, 1422, 1421, 1462, 1463
1361, 1421, 1423, 1464, 1462
1362, 1423, 1424, 1465, 1464
1363, 1424, 1425, 1466, 1465
1364, 1425, 1426, 1467, 1466
1365, 1426, 1427, 1468, 1467
1366, 1427, 1428, 1469, 1468
1367, 1428, 1429, 1470, 1469
1368, 1429, 1430, 1471, 1470
1369, 1430, 1431, 1472, 1471
1370, 1431, 1432, 1473, 1472
1371, 1432, 1433, 1474, 1473
1372, 1433, 1434, 1475, 1474
1373, 1434, 1435, 1476, 1475
1374, 1435, 1436, 1477, 1476
1375, 1436, 1437, 1478, 1477
1376, 1437, 1438, 1479, 1478
1377, 1438, 1439, 1480, 1479
1378, 1439, 1440, 1481, 1480
1379, 1440, 1441, 1482, 1481
1380, 1441, 1442, 1483, 1482
1381, 1442, 1443, 1484, 1483
1382, 1443, 1444, 1485, 1484
1383, 1444, 1445, 1486, 1485
1384, 1445, 1446, 1487, 1486
1385, 1446, 1447, 1488, 1487
1386, 1447, 1448, 1489, 1488
1387, 1448, 1449, 1490, 1489
1388, 1449, 1450, 1491, 1490
1389, 1450, 1451, 1492, 1491
1390, 1451, 1452, 1493, 1492
1391, 1452, 1453, 1494, 1493
1392, 1453, 1454, 1495, 1494
1393, 1454, 1455, 1496, 1495
1394, 1455, 1456, 1497, 1496
1395, 1456, 1457, 1498, 1497
1396, 1457, 1458, 1499, 1498
1397, 1458, 1459, 1500, 1499
1398, 1459, 1461, 1501, 1500
1399, 1461, 1502, 1503, 1501
1400, 1463, 1462, 1504, 1505
1401, 1462, 1464, 1506, 1504
1402, 1464, 1465, 1507, 1506
1403, 1465, 1466, 1508, 1507
1404, 1466, 1467, 1509, 1508
1405, 1467, 1468, 1510, 1509
1406, 1468, 1469, 1511, 1510
1407, 1469, 1470, 1512, 1511
1408, 1470, 1471, 1513, 1512
1409, 1471, 1472, 1514, 1513
1410, 1472, 1473, 1515, 1514
1411, 1473, 1474, 1516, 1515
1412, 1474, 1475, 1517, 1516
1413, 1475, 1476, 1518, 1517
1414, 1476, 1477, 1519, 1518
1415, 1477, 1478, 1520, 1519
1416, 1478, 1479, 1521, 1520
1417, 1479, 1480, 1522, 1521
1418, 1480, 1481, 1523, 1522
1419, 1481, 1482, 1524, 1523
1420, 1482, 1483, 1525, 1524
1421, 1483, 1484, 1526, 1525
1422, 1484, 1485, 1527, 1526
1423, 1485, 1486, 1528, 1527
1424, 1486, 1487, 1529, 1528
1425, 1487, 1488, 1530, 1529
1426, 1488, 1489, 1531, 1530
1427, 1489, 1490, 1532, 1531
1428, 1490, 1491, 1533, 1532
1429, 1491, 1492, 1534, 1533
1430, 1492, 1493, 1535, 1534
1431, 1493, 1494, 1536, 1535
1432, 1494, 1495, 1537, 1536
1433, 1495, 1496, 1538, 1537
1434, 1496, 1497, 1539, 1538
1435, 1497, 1498, 1540, 1539
1436, 1498, 1499, 1541, 1540
1437, 1499, 1500, 1542, 1541
1438, 1500, 1501, 1543, 1542
1439, 1501, 1503, 1544, 1543
1440, 1503, 1545, 1546, 1544
1441, 1505, 1504, 1547, 1548
1442, 1504, 1506, 1549, 1547
1443, 1506, 1507, 1550, 1549
1444, 1507, 1508, 1551, 1550
1445, 1508, 1509, 1552, 1551
1446, 1509, 1510, 1553, 1552
1447, 1510, 1511, 1554, 1553
1448, 1511, 1512, 1555, 1554
1449, 1512, 1513, 1556, 1555
1450, 1513, 1514, 1557, 1556
1451, 1514, 1515, 1558, 1557
1452, 1515, 1516, 1559, 1558
1453, 1516, 1517, 1560, 1559
1454, 1517, 1518, 1561, 1560
1455, 1518, 1519, 1562, 1561
1456, 1519, 1520, 1563, 1562
1457, 1520, 1521, 1564, 1563
1458, 1521, 1522, 1565, 1564
1459, 1522, 1523, 1566, 1565
1460, 1523, 1524, 1567, 1566
1461, 1524, 1525, 1568, 1567
1462, 1525, 1526, 1569, 1568
1463, 1526, 1527, 1570, 1569
1464, 1527, 1528, 1571, 1570
1465, 1528, 1529, 1572, 1571
1466, 1529, 1530, 1573, 1572
1467, 1530, 1531, 1574, 1573
1468, 1531, 1532, 1575, 1574
1469, 1532, 1533, 1576, 1575
1470, 1533, 1534, 1577, 1576
1471, 1534, 1535, 1578, 1577
1472, 1535, 1536, 1579, 1578
1473, 1536, 1537, 1580, 1579
1474, 1537, 1538, 1581, 1580
1475, 1538, 1539, 1582, 1581
1476, 1539, 1540, 1583, 1582
1477, 1540, 1541, 1584, 1583
1478, 1541, 1542, 1585, 1584
1479, 1542, 1543, 1586, 1585
1480, 1543, 1544, 1587, 1586
1481, 1544, 1546, 1588, 1587
1482, 1546, 1589, 1590, 1588
1483, 1548, 1547, 1591, 1592
1484, 1547, 1549, 1593, 1591
1485, 1549, 1550, 1594, 1593
1486, 1550, 1551, 1595, 1594
1487, 1551, 1552, 1596, 1595
1488, 1552, 1553, 1597, 1596
1489, 1553, 1554, 1598, 1597
1490, 1554, 1555, 1599, 1598
1491, 1555, 1556, 1600, 1599
1492, 1556, 1557, 1601, 1600
1493, 1557, 1558, 1602, 1601
1494, 1558, 1559, 1603, 1602
1495, 1559, 1560, 1604, 1603
1496, 1560, 1561, 1605, 1604
1497, 1561, 1562, 1606, 1605
1498, 1562, 1563, 1607, 1606
1499, 1563, 1564, 1608, 1607
1500, 1564, 1565, 1609, 1608
1501, 1565, 1566, 1610, 1609
1502, 1566, 1567, 1611, 1610
1503, 1567, 1568, 1612, 1611
1504, 1568, 1569, 1613, 1612
1505, 1569, 1570, 1614, 1613
1506, 1570, 1571, 1615, 1614
1507, 1571, 1572, 1616, 1615
1508, 1572, 1573, 1617, 1616
1509, 1573, 1574, 1618, 1617
1510, 1574, 1575, 1619, 1618
1511, 1575, 1576, 1620, 1619
1512, 1576, 1577, 1621, 1620
1513, 1577, 1578, 1622, 1621
1514, 1578, 1579, 1623, 1622
1515, 1579, 1580, 1624, 1623
1516, 1580, 1581, 1625, 1624
1517, 1581, 1582, 1626, 1625
1518, 1582, 1583, 1627, 1626
1519, 1583, 1584, 1628, 1627
1520, 1584, 1585, 1629, 1628
1521, 1585, 1586, 1630, 1629
1522, 1586, 1587, 1631, 1630
1523, 1587, 1588, 1632, 1631
1524, 1588, 1590, 1633, 1632
1525, 1590, 1634, 1635, 1633
1526, 1592, 1591, 1636, 1637
1527, 1591, 1593, 1638, 1636
1528, 1593, 1594, 1639, 1638
1529, 1594, 1595, 1640, 1639
1530, 1595, 1596, 1641, 1640
1531, 1596, 1597, 1642, 1641
1532, 1597, 1598, 1643, 1642
1533, 1598, 1599, 1644, 1643
1534, 1599, 1600, 1645, 1644
1535, 1600, 1601, 1646, 1645
1536, 1601, 1602, 1647, 1646
1537, 1602, 1603, 1648, 1647
1538, 1603, 1604, 1649, 1648
1539, 1604, 1605, 1650, 1649
1540, 1605, 1606, 1651, 1650
1541, 1606, 1607, 1652, 1651
1542, 1607, 1608, 1653, 1652
1543, 1608, 1609, 1654, 1653
1544, 1609, 1610, 1655, 1654
1545, 1610, 1611, 1656, 1655
1546, 1611, 1612, 1657, 1656
1547, 1612, 1613, 1658, 1657
1548, 1613, 1614, 1659, 1658
1549, 1614, 1615, 1660, 1659
1550, 1615, 1616, 1661, 1660
1551, 1616, 1617, 1662, 1661
1552, 1617, 1618, 1663, 1662
1553, 1618, 1619, 1664, 1663
1554, 1619, 1620, 1665, 1664
1555, 1620, 1621, 1666, 1665
1556, 1621, 1622, 1667, 1666
1557, 1622, 1623, 1668, 1667
1558, 1623, 1624, 1669, 1668
1559, 1624, 1625, 1670, 1669
1560, 1625, 1626, 1671, 1670
1561, 1626, 1627, 1672, 1671
1562, 1627, 1628, 1673, 1672
1563, 1628, 1629, 1674, 1673
1564, 1629, 1630, 1675, 1674
1565, 1630, 1631, 1676, 1675
1566, 1631, 1632, 1677, 1676
1567, 1632, 1633, 1678, 1677
1568, 1633, 1635, 1679, 1678
1569, 1635, 1680, 1681, 1679
1570, 1637, 1636, 1682, 1683
1571, 1636, 1638, 1684, 1682
1572, 1638, 1639, 1685, 1684
1573, 1639, 1640, 1686, 1685
1574, 1640, 1641, 1687, 1686
1575, 1641, 1642, 1688, 1687
1576, 1642, 1643, 1689, 1688
1577, 1643, 1644, 1690, 1689
1578, 1644, 1645, 1691, 1690
1579, 1645, 1646, 1692, 1691
1580, 1646, 1647, 1693, 1692
1581, 1647, 1648, 1694, 1693
1582, 1648, 1649, 1695, 1694
1583, 1649, 1650, 1696, 1695
1584, 1650, 1651, 1697, 1696
1585, 1651, 1652, 1698, 1697
1586, 1652, 1653, 1699, 1698
1587, 1653, 1654, 1700, 1699
1588, 1654, 1655, 1701, 1700
1589, 1655, 1656, 1702, 1701
1590, 1656, 1657, 1703, 1702
1591, 1657, 1658, 1704, 1703
1592, 1658, 1659, 1705, 1704
1593, 1659, 1660, 1706, 1705
1594, 1660, 1661, 1707, 1706
1595, 1661, 1662, 1708, 1707
1596, 1662, 1663, 1709, 1708
1597, 1663, 1664, 1710, 1709
1598, 1664, 1665, 1711, 1710
1599, 1665, 1666, 1712, 1711
1600, 1666, 1667, 1713, 1712
1601, 1667, 1668, 1714, 1713
1602, 1668, 1669, 1715, 1714
1603, 1669, 1670, 1716, 1715
1604, 1670, 1671, 1717, 1716
1605, 1671, 1672, 1718, 1717
1606, 1672, 1673, 1719, 1718
1607, 1673, 1674, 1720, 1719
1608, 1674, 1675, 1721, 1720
1609, 1675, 1676, 1722, 1721
1610, 1676, 1677, 1723, 1722
1611, 1677, 1678, 1724, 1723
1612, 1678, 1679, 1725, 1724
1613, 1679, 1681, 1726, 1725
1614, 1681, 1727, 1728, 1726
1615, 1683, 1682, 1729, 1730
1616, 1682, 1684, 1731, 1729
1617, 1684, 1685, 1732, 1731
1618, 1685, 1686, 1733, 1732
1619, 1686, 1687, 1734, 1733
1620, 1687, 1688, 1735, 1734
1621, 1688, 1689, 1736, 1735
1622, 1689, 1690, 1737, 1736
1623, 1690, 1691, 1738, 1737
1624, 1691, 1692, 1739, 1738
1625, 1692, 1693, 1740, 1739
1626, 1693, 1694, 1741, 1740
1627, 1694, 1695, 1742, 1741
1628, 1695, 1696, 1743, 1742
1629, 1696, 1697, 1744, 1743
1630, 1697, 1698, 1745, 1744
1631, 1698, 1699, 1746, 1745
1632, 1699, 1700, 1747, 1746
1633, 1700, 1701, 1748, 1747
1634, 1701, 1702, 1749, 1748
1635, 1702, 1703, 1750, 1749
1636, 1703, 1704, 1751, 1750
1637, 1704, 1705, 1752, 1751
1638, 1705, 1706, 1753, 1752
1639, 1706, 1707, 1754, 1753
1640, 1707, 1708, 1755, 1754
1641, 1708, 1709, 1756, 1755
1642, 1709, 1710, 1757, 1756
1643, 1710, 1711, 1758, 1757
1644, 1711, 1712, 1759, 1758
1645, 1712, 1713, 1760, 1759
1646, 1713, 1714, 1761, 1760
1647, 1714, 1715, 1762, 1761
1648, 1715, 1716, 1763, 1762
1649, 1716, 1717, 1764, 1763
1650, 1717, 1718, 1765, 1764
1651, 1718, 1719, 1766, 1765
1652, 1719, 1720, 1767, 1766
1653, 1720, 1721, 1768, 1767
1654, 1721, 1722, 1769, 1768
1655, 1722, 1723, 1770, 1769
1656, 1723, 1724, 1771, 1770
1657, 1724, 1725, 1772, 1771
1658, 1725, 1726, 1773, 1772
1659, 1726, 1728, 1774, 1773
1660, 1728, 1775, 1776, 1774
1661, 1730, 1729, 1777, 1778
1662, 1729, 1731, 1779, 1777
1663, 1731, 1732, 1780, 1779
1664, 1732, 1733, 1781, 1780
1665, 1733, 1734, 1782, 1781
1666, 1734, 1735, 1783, 1782
1667, 1735, 1736, 1784, 1783
1668, 1736, 1737, 1785, 1784
1669, 1737, 1738, 1786, 1785
1670, 1738, 1739, 1787, 1786
1671, 1739, 1740, 1788, 1787
1672, 1740, 1741, 1789, 1788
1673, 1741, 1742, 1790, 1789
1674, 1742, 1743, 1791, 1790
1675, 1743, 1744, 1792, 1791
1676, 1744, 1745, 1793, 1792
1677, 1745, 1746, 1794, 1793
1678, 1746, 1747, 1795, 1794
1679, 1747, 1748, 1796, 1795
1680, 1748, 1749, 1797, 1796
1681, 1749, 1750, 1798, 1797
1682, 1750, 1751, 1799, 1798
1683, 1751, 1752, 1800, 1799
1684, 1752, 1753, 1801, 1800
1685, 1753, 1754, 1802, 1801
1686, 1754, 1755, 1803, 1802
1687, 1755, 1756, 1804, 1803
1688, 1756, 1757, 1805, 1804
1689, 1757, 1758, 1806, 1805
1690, 1758, 1759, 1807, 1806
1691, 1759, 1760, 1808, 1807
1692, 1760, 1761, 1809, 1808
1693, 1761, 1762, 1810, 1809
1694, 1762, 1763, 1811, 1810
1695, 1763, 1764, 1812, 1811
1696, 1764, 1765, 1813, 1812
1697, 1765, 1766, 1814, 1813
1698, 1766, 1767, 1815, 1814
1699, 1767, 1768, 1816, 1815
1700, 1768, 1769, 1817, 1816
1701, 1769, 1770, 1818, 1817
1702, 1770, 1771, 1819, 1818
1703, 1771, 1772, 1820, 1819
1704, 1772, 1773, 1821, 1820
1705, 1773, 1774, 1822, 1821
1706, 1774, 1776, 1823, 1822
1707, 1776, 1824, 1825, 1823
1708, 1824, 1826, 1827, 1825
1709, 1778, 1777, 1828, 1829
1710, 1777, 1779, 1830, 1828
1711, 1779, 1780, 1831, 1830
1712, 1780, 1781, 1832, 1831
1713, 1781, 1782, 1833, 1832
1714, 1782, 1783, 1834, 1833
1715, 1783, 1784, 1835, 1834
1716, 1784, 1785, 1836, 1835
1717, 1785, 1786, 1837, 1836
1718, 1786, 1787, 1838, 1837
1719, 1787, 1788, 1839, 1838
1720, 1788, 1789, 1840, 1839
1721, 1789, 1790, 1841, 1840
1722, 1790, 1791, 1842, 1841
1723, 1791, 1792, 1843, 1842
1724, 1792, 1793, 1844, 1843
1725, 1793, 1794, 1845, 1844
1726, 1794, 1795, 1846, 1845
1727, 1795, 1796, 1847, 1846
1728, 1796, 1797, 1848, 1847
1729, 1797, 1798, 1849, 1848
1730, 1798, 1799, 1850, 1849
1731, 1799, 1800, 1851, 1850
1732, 1800, 1801, 1852, 1851
1733, 1801, 1802, 1853, 1852
1734, 1802, 1803, 1854, 1853
1735, 1803, 1804, 1855, 1854
1736, 1804, 1805, 1856, 1855
1737, 1805, 1806, 1857, 1856
1738, 1806, 1807, 1858, 1857
1739, 1807, 1808, 1859, 1858
1740, 1808, 1809, 1860, 1859
1741, 1809, 1810, 1861, 1860
1742, 1810, 1811, 1862, 1861
1743, 1811, 1812, 1863, 1862
1744, 1812, 1813, 1864, 1863
1745, 1813, 1814, 1865, 1864
1746, 1814, 1815, 1866, 1865
1747, 1815, 1816, 1867, 1866
1748, 1816, 1817, 1868, 1867
1749, 1817, 1818, 1869, 1868
1750, 1818, 1819, 1870, 1869
1751, 1819, 1820, 1871, 1870
1752, 1820, 1821, 1872, 1871
1753, 1821, 1822, 1873, 1872
1754, 1822, 1823, 1874, 1873
1755, 1823, 1825, 1875, 1874
1756, 1825, 1827, 1876, 1875
1757, 1827, 1877, 1878, 1876
1758, 1877, 1879, 1880, 1878
1759, 1879, 1881, 1882, 1880
1760, 1829, 1828, 1883, 1884
1761, 1828, 1830, 1885, 1883
1762, 1830, 1831, 1886, 1885
1763, 1831, 1832, 1887, 1886
1764, 1832, 1833, 1888, 1887
1765, 1833, 1834, 1889, 1888
1766, 1834, 1835, 1890, 1889
1767, 1835, 1836, 1891, 1890
1768, 1836, 1837, 1892, 1891
1769, 1837, 1838, 1893, 1892
1770, 1838, 1839, 1894, 1893
1771, 1839, 1840, 1895, 1894
1772, 1840, 1841, 1896, 1895
1773, 1841, 1842, 1897, 1896
1774, 1842, 1843, 1898, 1897
1775, 1843, 1844, 1899, 1898
1776, 1844, 1845, 1900, 1899
1777, 1845, 1846, 1901, 1900
1778, 1846, 1847, 1902, 1901
1779, 1847, 1848, 1903, 1902
1780, 1848, 1849, 1904, 1903
1781, 1849, 1850, 1905, 1904
1782, 1850, 1851, 1906, 1905
1783, 1851, 1852, 1907, 1906
1784, 1852, 1853, 1908, 1907
1785, 1853, 1854, 1909, 1908
1786, 1854, 1855, 1910, 1909
1787, 1855, 1856, 1911, 1910
1788, 1856, 1857, 1912, 1911
1789, 1857, 1858, 1913, 1912
1790, 1858, 1859, 1914, 1913
1791, 1859, 1860, 1915, 1914
1792, 1860, 1861, 1916, 1915
1793, 1861, 1862, 1917, 1916
1794, 1862, 1863, 1918, 1917
1795, 1863, 1864, 1919, 1918
1796, 1864, 1865, 1920, 1919
1797, 1865, 1866, 1921, 1920
1798, 1866, 1867, 1922, 1921
1799, 1867, 1868, 1923, 1922
1800, 1868, 1869, 1924, 1923
1801, 1869, 1870, 1925, 1924
1802, 1870, 1871, 1926, 1925
1803, 1871, 1872, 1927, 1926
1804, 1872, 1873, 1928, 1927
1805, 1873, 1874, 1929, 1928
1806, 1874, 1875, 1930, 1929
1807, 1875, 1876, 1931, 1930
1808, 1876, 1878, 1932, 1931
1809, 1878, 1880, 1933, 1932
1810, 1880, 1882, 1934, 1933
1811, 1882, 1935, 1936, 1934
1812, 1884, 1883, 1937, 1938
1813, 1883, 1885, 1939, 1937
1814, 1885, 1886, 1940, 1939
1815, 1886, 1887, 1941, 1940
1816, 1887, 1888, 1942, 1941
1817, 1888, 1889, 1943, 1942
1818, 1889, 1890, 1944, 1943
1819, 1890, 1891, 1945, 1944
1820, 1891, 1892, 1946, 1945
1821, 1892, 1893, 1947, 1946
1822, 1893, 1894, 1948, 1947
1823, 1894, 1895, 1949, 1948
1824, 1895, 1896, 1950, 1949
1825, 1896, 1897, 1951, 1950
1826, 1897, 1898, 1952, 1951
1827, 1898, 1899, 1953, 1952
1828, 1899, 1900, 1954, 1953
1829, 1900, 1901, 1955, 1954
1830, 1901, 1902, 1956, 1955
1831, 1902, 1903, 1957, 1956
1832, 1903, 1904, 1958, 1957
1833, 1904, 1905, 1959, 1958
1834, 1905, 1906, 1960, 1959
1835, 1906, 1907, 1961, 1960
1836, 1907, 1908, 1962, 1961
1837, 1908, 1909, 1963, 1962
1838, 1909, 1910, 1964, 1963
1839, 1910, 1911, 1965, 1964
1840, 1911, 1912, 1966, 1965
1841, 1912, 1913, 1967, 1966
1842, 1913, 1914, 1968, 1967
1843, 1914, 1915, 1969, 1968
1844, 1915, 1916, 1970, 1969
1845, 1916, 1917, 1971, 1970
1846, 1917, 1918, 1972, 1971
1847, 1918, 1919, 1973, 1972
1848, 1919, 1920, 1974, 1973
1849, 1920, 1921, 1975, 1974
1850, 1921, 1922, 1976, 1975
1851, 1922, 1923, 1977, 1976
1852, 1923, 1924, 1978, 1977
1853, 1924, 1925, 1979, 1978
1854, 1925, 1926, 1980, 1979
1855, 1926, 1927, 1981, 1980
1856, 1927, 1928, 1982, 1981
1857, 1928, 1929, 1983, 1982
1858, 1929, 1930, 1984, 1983
1859, 1930, 1931, 1985, 1984
1860, 1931, 1932, 1986, 1985
1861, 1932, 1933, 1987, 1986
1862, 1933, 1934, 1988, 1987
1863, 1934, 1936, 1989, 1988
1864, 1936, 1990, 1991, 1989
1865, 1938, 1937, 1992, 1993
1866, 1937, 1939, 1994, 1992
1867, 1939, 1940, 1995, 1994
1868, 1940, 1941, 1996, 1995
1869, 1941, 1942, 1997, 1996
1870, 1942, 1943, 1998, 1997
1871, 1943, 1944, 1999, 1998
1872, 1944, 1945, 2000, 1999
1873, 1945, 1946, 2001, 2000
1874, 1946, 1947, 2002, 2001
1875, 1947, 1948, 2003, 2002
1876, 1948, 1949, 2004, 2003
1877, 1949, 1950, 2005, 2004
1878, 1950, 1951, 2006, 2005
1879, 1951, 1952, 2007, 2006
1880, 1952, 1953, 2008, 2007
1881, 1953, 1954, 2009, 2008
1882, 1954, 1955, 2010, 2009
1883, 1955, 1956, 2011, 2010
1884, 1956, 1957, 2012, 2011
1885, 1957, 1958, 2013, 2012
1886, 1958, 1959, 2014, 2013
1887, 1959, 1960, 2015, 2014
1888, 1960, 1961, 2016, 2015
1889, 1961, 1962, 2017, 2016
1890, 1962, 1963, 2018, 2017
1891, 1963, 1964, 2019, 2018
1892, 1964, 1965, 2020, 2019
1893, 1965, 1966, 2021, 2020
1894, 1966, 1967, 2022, 2021
1895, 1967, 1968, 2023, 2022
1896, 1968, 1969, 2024, 2023
1897, 1969, 1970, 2025, 2024
1898, 1970, 1971, 2026, 2025
1899, 1971, 1972, 2027, 2026
1900, 1972, 1973, 2028, 2027
1901, 1973, 1974, 2029, 2028
1902, 1974, 1975, 2030, 2029
1903, 1975, 1976, 2031, 2030
1904, 1976, 1977, 2032, 2031
1905, 1977, 1978, 2033, 2032
1906, 1978, 1979, 2034, 2033
1907, 1979, 1980, 2035, 2034
1908, 1980, 1981, 2036, 2035
1909, 1981, 1982, 2037, 2036
1910, 1982, 1983, 2038, 2037
1911, 1983, 1984, 2039, 2038
1912, 1984, 1985, 2040, 2039
1913, 1985, 1986, 2041, 2040
1914, 1986, 1987, 2042, 2041
1915, 1987, 1988, 2043, 2042
1916, 1988, 1989, 2044, 2043
1917, 1989, 1991, 2045, 2044
1918, 1991, 2046, 2047, 2045
1919, 2046, 2048, 2049, 2047
1920, 2048, 2050, 2051, 2049
1921, 1993, 1992, 2052, 2053
1922, 1992, 1994, 2054, 2052
1923, 1994, 1995, 2055, 2054
1924, 1995, 1996, 2056, 2055
1925, 1996, 1997, 2057, 2056
1926, 1997, 1998, 2058, 2057
1927, 1998, 1999, 2059, 2058
1928, 1999, 2000, 2060, 2059
1929, 2000, 2001, 2061, 2060
1930, 2001, 2002, 2062, 2061
1931, 2002, 2003, 2063, 2062
1932, 2003, 2004, 2064, 2063
1933, 2004, 2005, 2065, 2064
1934, 2005, 2006, 2066, 2065
1935, 2006, 2007, 2067, 2066
1936, 2007, 2008, 2068, 2067
1937, 2008, 2009, 2069, 2068
1938, 2009, 2010, 2070, 2069
1939, 2010, 2011, 2071, 2070
1940, 2011, 2012, 2072, 2071
1941, 2012, 2013, 2073, 2072
1942, 2013, 2014, 2074, 2073
1943, 2014, 2015, 2075, 2074
1944, 2015, 2016, 2076, 2075
1945, 2016, 2017, 2077, 2076
1946, 2017, 2018, 2078, 2077
1947, 2018, 2019, 2079, 2078
1948, 2019, 2020, 2080, 2079
1949, 2020, 2021, 2081, 2080
1950, 2021, 2022, 2082, 2081
1951, 2022, 2023, 2083, 2082
1952, 2023, 2024, 2084, 2083
1953, 2024, 2025, 2085, 2084
1954, 2025, 2026, 2086, 2085
1955, 2026, 2027, 2087, 2086
1956, 2027, 2028, 2088, 2087
1957, 2028, 2029, 2089, 2088
1958, 2029, 2030, 2090, 2089
1959, 2030, 2031, 2091, 2090
1960, 2031, 2032, 2092, 2091
1961, 2032, 2033, 2093, 2092
1962, 2033, 2034, 2094, 2093
1963, 2034, 2035, 2095, 2094
1964, 2035, 2036, 2096, 2095
1965, 2036, 2037, 2097, 2096
1966, 2037, 2038, 2098, 2097
1967, 2038, 2039, 2099, 2098
1968, 2039, 2040, 2100, 2099
1969, 2040, 2041, 2101, 2100
1970, 2041, 2042, 2102, 2101
1971, 2042, 2043, 2103, 2102
1972, 2043, 2044, 2104, 2103
1973, 2044, 2045, 2105, 2104
1974, 2045, 2047, 2106, 2105
1975, 2047, 2049, 2107, 2106
1976, 2049, 2051, 2108, 2107
1977, 2051, 2109, 2110, 2108
1978, 2053, 2052, 2111, 2112
1979, 2052, 2054, 2113, 2111
1980, 2054, 2055, 2114, 2113
1981, 2055, 2056, 2115, 2114
1982, 2056, 2057, 2116, 2115
1983, 2057, 2058, 2117, 2116
1984, 2058, 2059, 2118, 2117
1985, 2059, 2060, 2119, 2118
1986, 2060, 2061, 2120, 2119
1987, 2061, 2062, 2121, 2120
1988, 2062, 2063, 2122, 2121
1989, 2063, 2064, 2123, 2122
1990, 2064, 2065, 2124, 2123
1991, 2065, 2066, 2125, 2124
1992, 2066, 2067, 2126, 2125
1993, 2067, 2068, 2127, 2126
1994, 2068, 2069, 2128, 2127
1995, 2069, 2070, 2129, 2128
1996, 2070, 2071, 2130, 2129
1997, 2071, 2072, 2131, 2130
1998, 2072, 2073, 2132, 2131
1999, 2073, 2074, 2133, 2132
2000, 2074, 2075, 2134, 2133
2001, 2075, 2076, 2135, 2134
2002, 2076, 2077, 2136, 2135
2003, 2077, 2078, 2137, 2136
2004, 2078, 2079, 2138, 2137
2005, 2079, 2080, 2139, 2138
2006, 2080, 2081, 2140, 2139
2007, 2081, 2082, 2141, 2140
2008, 2082, 2083, 2142, 2141
2009, 2083, 2084, 2143, 2142
2010, 2084, 2085, 2144, 2143
2011, 2085, 2086, 2145, 2144
2012, 2086, 2087, 2146, 2145
2013, 2087, 2088, 2147, 2146
2014, 2088, 2089, 2148, 2147
2015, 2089, 2090, 2149, 2148
2016, 2090, 2091, 2150, 2149
2017, 2091, 2092, 2151, 2150
2018, 2092, 2093, 2152, 2151
2019, 2093, 2094, 2153, 2152
2020, 2094, 2095, 2154, 2153
2021, 2095, 2096, 2155, 2154
2022, 2096, 2097, 2156, 2155
2023, 2097, 2098, 2157, 2156
2024, 2098, 2099, 2158, 2157
2025, 2099, 2100, 2159, 2158
2026, 2100, 2101, 2160, 2159
2027, 2101, 2102, 2161, 2160
2028, 2102, 2103, 2162, 2161
2029, 2103, 2104, 2163, 2162
2030, 2104, 2105, 2164, 2163
2031, 2105, 2106, 2165, 2164
2032, 2106, 2107, 2166, 2165
2033, 2107, 2108, 2167, 2166
2034, 2108, 2110, 2168, 2167
2035, 2110, 2169, 2170, 2168
2036, 2112, 2111, 2171, 2172
2037, 2111, 2113, 2173, 2171
2038, 2113, 2114, 2174, 2173
2039, 2114, 2115, 2175, 2174
2040, 2115, 2116, 2176, 2175
2041, 2116, 2117, 2177, 2176
2042, 2117, 2118, 2178, 2177
2043, 2118, 2119, 2179, 2178
2044, 2119, 2120, 2180, 2179
2045, 2120, 2121, 2181, 2180
2046, 2121, 2122, 2182, 2181
2047, 2122, 2123, 2183, 2182
2048, 2123, 2124, 2184, 2183
2049, 2124, 2125, 2185, 2184
2050, 2125, 2126, 2186, 2185
2051, 2126, 2127, 2187, 2186
2052, 2127, 2128, 2188, 2187
2053, 2128, 2129, 2189, 2188
2054, 2129, 2130, 2190, 2189
2055, 2130, 2131, 2191, 2190
2056, 2131, 2132, 2192, 2191
2057, 2132, 2133, 2193, 2192
2058, 2133, 2134, 2194, 2193
2059, 2134, 2135, 2195, 2194
2060, 2135, 2136, 2196, 2195
2061, 2136, 2137, 2197, 2196
2062, 2137, 2138, 2198, 2197
2063, 2138, 2139, 2199, 2198
2064, 2139, 2140, 2200, 2199
2065, 2140, 2141, 2201, 2200
2066, 2141, 2142, 2202, 2201
2067, 2142, 2143, 2203, 2202
2068, 2143, 2144, 2204, 2203
2069, 2144, 2145, 2205, 2204
2070, 2145, 2146, 2206, 2205
2071, 2146, 2147, 2207, 2206
2072, 2147, 2148, 2208, 2207
2073, 2148, 2149, 2209, 2208
2074, 2149, 2150, 2210, 2209
2075, 2150, 2151, 2211, 2210
2076, 2151, 2152, 2212, 2211
2077, 2152, 2153, 2213, 2212
2078, 2153, 2154, 2214, 2213
2079, 2154, 2155, 2215, 2214
2080, 2155, 2156, 2216, 2215
2081, 2156, 2157, 2217, 2216
2082, 2157, 2158, 2218, 2217
2083, 2158, 2159, 2219, 2218
2084, 2159, 2160, 2220, 2219
2085, 2160, 2161, 2221, 2220
2086, 2161, 2162, 2222, 2221
2087, 2162, 2163, 2223, 2222
2088, 2163, 2164, 2224, 2223
2089, 2164, 2165, 2225, 2224
2090, 2165, 2166, 2226, 2225
2091, 2166, 2167, 2227, 2226
2092, 2167, 2168, 2228, 2227
2093, 2168, 2170, 2229, 2228
2094, 2170, 2230, 2231, 2229
2095, 2230, 2232, 2233, 2231
2096, 2172, 2171, 2234, 2235
2097, 2171, 2173, 2236, 2234
2098, 2173, 2174, 2237, 2236
2099, 2174, 2175, 2238, 2237
2100, 2175, 2176, 2239, 2238
2101, 2176, 2177, 2240, 2239
2102, 2177, 2178, 2241, 2240
2103, 2178, 2179, 2242, 2241
2104, 2179, 2180, 2243, 2242
2105, 2180, 2181, 2244, 2243
2106, 2181, 2182, 2245, 2244
2107, 2182, 2183, 2246, 2245
2108, 2183, 2184, 2247, 2246
2109, 2184, 2185, 2248, 2247
2110, 2185, 2186, 2249, 2248
2111, 2186, 2187, 2250, 2249
2112, 2187, 2188, 2251, 2250
2113, 2188, 2189, 2252, 2251
2114, 2189, 2190, 2253, 2252
2115, 2190, 2191, 2254, 2253
2116, 2191, 2192, 2255, 2254
2117, 2192, 2193, 2256, 2255
2118, 2193, 2194, 2257, 2256
2119, 2194, 2195, 2258, 2257
2120, 2195, 2196, 2259, 2258
2121, 2196, 2197, 2260, 2259
2122, 2197, 2198, 2261, 2260
2123, 2198, 2199, 2262, 2261
2124, 2199, 2200, 2263, 2262
2125, 2200, 2201, 2264, 2263
2126, 2201, 2202, 2265, 2264
2127, 2202, 2203, 2266, 2265
2128, 2203, 2204, 2267, 2266
2129, 2204, 2205, 2268, 2267
2130, 2205, 2206, 2269, 2268
2131, 2206, 2207, 2270, 2269
2132, 2207, 2208, 2271, 2270
2133, 2208, 2209, 2272, 2271
2134, 2209, 2210, 2273, 2272
2135, 2210, 2211, 2274, 2273
2136, 2211, 2212, 2275, 2274
2137, 2212, 2213, 2276, 2275
2138, 2213, 2214, 2277, 2276
2139, 2214, 2215, 2278, 2277
2140, 2215, 2216, 2279, 2278
2141, 2216, 2217, 2280, 2279
2142, 2217, 2218, 2281, 2280
2143, 2218, 2219, 2282, 2281
2144, 2219, 2220, 2283, 2282
2145, 2220, 2221, 2284, 2283
2146, 2221, 2222, 2285, 2284
2147, 2222, 2223, 2286, 2285
2148, 2223, 2224, 2287, 2286
2149, 2224, 2225, 2288, 2287
2150, 2225, 2226, 2289, 2288
2151, 2226, 2227, 2290, 2289
2152, 2227, 2228, 2291, 2290
2153, 2228, 2229, 2292, 2291
2154, 2229, 2231, 2293, 2292
2155, 2231, 2233, 2294, 2293
2156, 2233, 2295, 2296, 2294
2157, 2235, 2234, 2297, 2298
2158, 2234, 2236, 2299, 2297
2159, 2236, 2237, 2300, 2299
2160, 2237, 2238, 2301, 2300
2161, 2238, 2239, 2302, 2301
2162, 2239, 2240, 2303, 2302
2163, 2240, 2241, 2304, 2303
2164, 2241, 2242, 2305, 2304
2165, 2242, 2243, 2306, 2305
2166, 2243, 2244, 2307, 2306
2167, 2244, 2245, 2308, 2307
2168, 2245, 2246, 2309, 2308
2169, 2246, 2247, 2310, 2309
2170, 2247, 2248, 2311, 2310
2171, 2248, 2249, 2312, 2311
2172, 2249, 2250, 2313, 2312
2173, 2250, 2251, 2314, 2313
2174, 2251, 2252, 2315, 2314
2175, 2252, 2253, 2316, 2315
2176, 2253, 2254, 2317, 2316
2177, 2254, 2255, 2318, 2317
2178, 2255, 2256, 2319, 2318
2179, 2256, 2257, 2320, 2319
2180, 2257, 2258, 2321, 2320
2181, 2258, 2259, 2322, 2321
2182, 2259, 2260, 2323, 2322
2183, 2260, 2261, 2324, 2323
2184, 2261, 2262, 2325, 2324
2185, 2262, 2263, 2326, 2325
2186, 2263, 2264, 2327, 2326
2187, 2264, 2265, 2328, 2327
2188, 2265, 2266, 2329, 2328
2189, 2266, 2267, 2330, 2329
2190, 2267, 2268, 2331, 2330
2191, 2268, 2269, 2332, 2331
2192, 2269, 2270, 2333, 2332
2193, 2270, 2271, 2334, 2333
2194, 2271, 2272, 2335, 2334
2195, 2272, 2273, 2336, 2335
2196, 2273, 2274, 2337, 2336
2197, 2274, 2275, 2338, 2337
2198, 2275, 2276, 2339, 2338
2199, 2276, 2277, 2340, 2339
2200, 2277, 2278, 2341, 2340
2201, 2278, 2279, 2342, 2341
2202, 2279, 2280, 2343, 2342
2203, 2280, 2281, 2344, 2343
2204, 2281, 2282, 2345, 2344
2205, 2282, 2283, 2346, 2345
2206, 2283, 2284, 2347, 2346
2207, 2284, 2285, 2348, 2347
2208, 2285, 2286, 2349, 2348
2209, 2286, 2287, 2350, 2349
2210, 2287, 2288, 2351, 2350
2211, 2288, 2289, 2352, 2351
2212, 2289, 2290, 2353, 2352
2213, 2290, 2291, 2354, 2353
2214, 2291, 2292, 2355, 2354
2215, 2292, 2293, 2356, 2355
2216, 2293, 2294, 2357, 2356
2217, 2294, 2296, 2358, 2357
2218, 2296, 2359, 2360, 2358
2219, 2359, 2361, 2362, 2360
2220, 2298, 2297, 2363, 2364
2221, 2297, 2299, 2365, 2363
2222, 2299, 2300, 2366, 2365
2223, 2300, 2301, 2367, 2366
2224, 2301, 2302, 2368, 2367
2225, 2302, 2303, 2369, 2368
2226, 2303, 2304, 2370, 2369
2227, 2304, 2305, 2371, 2370
2228, 2305, 2306, 2372, 2371
2229, 2306, 2307, 2373, 2372
2230, 2307, 2308, 2374, 2373
2231, 2308, 2309, 2375, 2374
2232, 2309, 2310, 2376, 2375
2233, 2310, 2311, 2377, 2376
2234, 2311, 2312, 2378, 2377
2235, 2312, 2313, 2379, 2378
2236, 2313, 2314, 2380, 2379
2237, 2314, 2315, 2381, 2380
2238, 2315, 2316, 2382, 2381
2239, 2316, 2317, 2383, 2382
2240, 2317, 2318, 2384, 2383
2241, 2318, 2319, 2385, 2384
2242, 2319, 2320, 2386, 2385
2243, 2320, 2321, 2387, 2386
2244, 2321, 2322, 2388, 2387
2245, 2322, 2323, 2389, 2388
2246, 2323, 2324, 2390, 2389
2247, 2324, 2325, 2391, 2390
2248, 2325, 2326, 2392, 2391
2249, 2326, 2327, 2393, 2392
2250, 2327, 2328, 2394, 2393
2251, 2328, 2329, 2395, 2394
2252, 2329, 2330, 2396, 2395
2253, 2330, 2331, 2397, 2396
2254, 2331, 2332, 2398, 2397
2255, 2332, 2333, 2399, 2398
2256, 2333, 2334, 2400, 2399
2257, 2334, 2335, 2401, 2400
2258, 2335, 2336, 2402, 2401
2259, 2336, 2337, 2403, 2402
2260, 2337, 2338, 2404, 2403
2261, 2338, 2339, 2405, 2404
2262, 2339, 2340, 2406, 2405
2263, 2340, 2341, 2407, 2406
2264, 2341, 2342, 2408, 2407
2265, 2342, 2343, 2409, 2408
2266, 2343, 2344, 2410, 2409
2267, 2344, 2345, 2411, 2410
2268, 2345, 2346, 2412, 2411
2269, 2346, 2347, 2413, 2412
2270, 2347, 2348, 2414, 2413
2271, 2348, 2349, 2415, 2414
2272, 2349, 2350, 2416, 2415
2273, 2350, 2351, 2417, 2416
2274, 2351, 2352, 2418, 2417
2275, 2352, 2353, 2419, 2418
2276, 2353, 2354, 2420, 2419
2277, 2354, 2355, 2421, 2420
2278, 2355, 2356, 2422, 2421
2279, 2356, 2357, 2423, 2422
2280, 2357, 2358, 2424, 2423
2281, 2358, 2360, 2425, 2424
2282, 2360, 2362, 2426, 2425
2283, 2362, 2427, 2428, 2426
2284, 2427, 2429, 2430, 2428
2285, 2364, 2363, 2431, 2432
2286, 2363, 2365, 2433, 2431
2287, 2365, 2366, 2434, 2433
2288, 2366, 2367, 2435, 2434
2289, 2367, 2368, 2436, 2435
2290, 2368, 2369, 2437, 2436
2291, 2369, 2370, 2438, 2437
2292, 2370, 2371, 2439, 2438
2293, 2371, 2372, 2440, 2439
2294, 2372, 2373, 2441, 2440
2295, 2373, 2374, 2442, 2441
2296, 2374, 2375, 2443, 2442
2297, 2375, 2376, 2444, 2443
2298, 2376, 2377, 2445, 2444
2299, 2377, 2378, 2446, 2445
2300, 2378, 2379, 2447, 2446
2301, 2379, 2380, 2448, 2447
2302, 2380, 2381, 2449, 2448
2303, 2381, 2382, 2450, 2449
2304, 2382, 2383, 2451, 2450
2305, 2383, 2384, 2452, 2451
2306, 2384, 2385, 2453, 2452
2307, 2385, 2386, 2454, 2453
2308, 2386, 2387, 2455, 2454
2309, 2387, 2388, 2456, 2455
2310, 2388, 2389, 2457, 2456
2311, 2389, 2390, 2458, 2457
2312, 2390, 2391, 2459, 2458
2313, 2391, 2392, 2460, 2459
2314, 2392, 2393, 2461, 2460
2315, 2393, 2394, 2462, 2461
2316, 2394, 2395, 2463, 2462
2317, 2395, 2396, 2464, 2463
2318, 2396, 2397, 2465, 2464
2319, 2397, 2398, 2466, 2465
2320, 2398, 2399, 2467, 2466
2321, 2399, 2400, 2468, 2467
2322, 2400, 2401, 2469, 2468
2323, 2401, 2402, 2470, 2469
2324, 2402, 2403, 2471, 2470
2325, 2403, 2404, 2472, 2471
2326, 2404, 2405, 2473, 2472
2327, 2405, 2406, 2474, 2473
2328, 2406, 2407, 2475, 2474
2329, 2407, 2408, 2476, 2475
2330, 2408, 2409, 2477, 2476
2331, 2409, 2410, 2478, 2477
2332, 2410, 2411, 2479, 2478
2333, 2411, 2412, 2480, 2479
2334, 2412, 2413, 2481, 2480
2335, 2413, 2414, 2482, 2481
2336, 2414, 2415, 2483, 2482
2337, 2415, 2416, 2484, 2483
2338, 2416, 2417, 2485, 2484
2339, 2417, 2418, 2486, 2485
2340, 2418, 2419, 2487, 2486
2341, 2419, 2420, 2488, 2487
2342, 2420, 2421, 2489, 2488
2343, 2421, 2422, 2490, 2489
2344, 2422, 2423, 2491, 2490
2345, 2423, 2424, 2492, 2491
2346, 2424, 2425, 2493, 2492
2347, 2425, 2426, 2494, 2493
2348, 2426, 2428, 2495, 2494
2349, 2428, 2430, 2496, 2495
2350, 2430, 2497, 2498, 2496
2351, 2497, 2499, 2500, 2498
2352, 2432, 2431, 2501, 2502
2353, 2431, 2433, 2503, 2501
2354, 2433, 2434, 2504, 2503
2355, 2434, 2435, 2505, 2504
2356, 2435, 2436, 2506, 2505
2357, 2436, 2437, 2507, 2506
2358, 2437, 2438, 2508, 2507
2359, 2438, 2439, 2509, 2508
2360, 2439, 2440, 2510, 2509
2361, 2440, 2441, 2511, 2510
2362, 2441, 2442, 2512, 2511
2363, 2442, 2443, 2513, 2512
2364, 2443, 2444, 2514, 2513
2365, 2444, 2445, 2515, 2514
2366, 2445, 2446, 2516, 2515
2367, 2446, 2447, 2517, 2516
2368, 2447, 2448, 2518, 2517
2369, 2448, 2449, 2519, 2518
2370, 2449, 2450, 2520, 2519
2371, 2450, 2451, 2521, 2520
2372, 2451, 2452, 2522, 2521
2373, 2452, 2453, 2523, 2522
2374, 2453, 2454, 2524, 2523
2375, 2454, 2455, 2525, 2524
2376, 2455, 2456, 2526, 2525
2377, 2456, 2457, 2527, 2526
2378, 2457, 2458, 2528, 2527
2379, 2458, 2459, 2529, 2528
2380, 2459, 2460, 2530, 2529
2381, 2460, 2461, 2531, 2530
2382, 2461, 2462, 2532, 2531
2383, 2462, 2463, 2533, 2532
2384, 2463, 2464, 2534, 2533
2385, 2464, 2465, 2535, 2534
2386, 2465, 2466, 2536, 2535
2387, 2466, 2467, 2537, 2536
2388, 2467, 2468, 2538, 2537
2389, 2468, 2469, 2539, 2538
2390, 2469, 2470, 2540, 2539
2391, 2470, 2471, 2541, 2540
2392, 2471, 2472, 2542, 2541
2393, 2472, 2473, 2543, 2542
2394, 2473, 2474, 2544, 2543
2395, 2474, 2475, 2545, 2544
2396, 2475, 2476, 2546, 2545
2397, 2476, 2477, 2547, 2546
2398, 2477, 2478, 2548, 2547
2399, 2478, 2479, 2549, 2548
2400, 2479, 2480, 2550, 2549
2401, 2480, 2481, 2551, 2550
2402, 2481, 2482, 2552, 2551
2403, 2482, 2483, 2553, 2552
2404, 2483, 2484, 2554, 2553
2405, 2484, 2485, 2555, 2554
2406, 2485, 2486, 2556, 2555
2407, 2486, 2487, 2557, 2556
2408, 2487, 2488, 2558, 2557
2409, 2488, 2489, 2559, 2558
2410, 2489, 2490, 2560, 2559
2411, 2490, 2491, 2561, 2560
2412, 2491, 2492, 2562, 2561
2413, 2492, 2493, 2563, 2562
2414, 2493, 2494, 2564, 2563
2415, 2494, 2495, 2565, 2564
2416, 2495, 2496, 2566, 2565
2417, 2496, 2498, 2567, 2566
2418, 2498, 2500, 2568, 2567
2419, 2500, 2569, 2570, 2568
2420, 2502, 2501, 2571, 2572
2421, 2501, 2503, 2573, 2571
2422, 2503, 2504, 2574, 2573
2423, 2504, 2505, 2575, 2574
2424, 2505, 2506, 2576, 2575
2425, 2506, 2507, 2577, 2576
2426, 2507, 2508, 2578, 2577
2427, 2508, 2509, 2579, 2578
2428, 2509, 2510, 2580, 2579
2429, 2510, 2511, 2581, 2580
2430, 2511, 2512, 2582, 2581
2431, 2512, 2513, 2583, 2582
2432, 2513, 2514, 2584, 2583
2433, 2514, 2515, 2585, 2584
2434, 2515, 2516, 2586, 2585
2435, 2516, 2517, 2587, 2586
2436, 2517, 2518, 2588, 2587
2437, 2518, 2519, 2589, 2588
2438, 2519, 2520, 2590, 2589
2439, 2520, 2521, 2591, 2590
2440, 2521, 2522, 2592, 2591
2441, 2522, 2523, 2593, 2592
2442, 2523, 2524, 2594, 2593
2443, 2524, 2525, 2595, 2594
2444, 2525, 2526, 2596, 2595
2445, 2526, 2527, 2597, 2596
2446, 2527, 2528, 2598, 2597
2447, 2528, 2529, 2599, 2598
2448, 2529, 2530, 2600, 2599
2449, 2530, 2531, 2601, 2600
2450, 2531, 2532, 2602, 2601
2451, 2532, 2533, 2603, 2602
2452, 2533, 2534, 2604, 2603
2453, 2534, 2535, 2605, 2604
2454, 2535, 2536, 2606, 2605
2455, 2536, 2537, 2607, 2606
2456, 2537, 2538, 2608, 2607
2457, 2538, 2539, 2609, 2608
2458, 2539, 2540, 2610, 2609
2459, 2540, 2541, 2611, 2610
2460, 2541, 2542, 2612, 2611
2461, 2542, 2543, 2613, 2612
2462, 2543, 2544, 2614, 2613
2463, 2544, 2545, 2615, 2614
2464, 2545, 2546, 2616, 2615
2465, 2546, 2547, 2617, 2616
2466, 2547, 2548, 2618, 2617
2467, 2548, 2549, 2619, 2618
2468, 2549, 2550, 2620, 2619
2469, 2550, 2551, 2621, 2620
2470, 2551, 2552, 2622, 2621
2471, 2552, 2553, 2623, 2622
2472, 2553, 2554, 2624, 2623
2473, 2554, 2555, 2625, 2624
2474, 2555, 2556, 2626, 2625
2475, 2556, 2557, 2627, 2626
2476, 2557, 2558, 2628, 2627
2477, 2558, 2559, 2629, 2628
2478, 2559, 2560, 2630, 2629
2479, 2560, 2561, 2631, 2630
2480, 2561, 2562, 2632, 2631
2481, 2562, 2563, 2633, 2632
2482, 2563, 2564, 2634, 2633
2483, 2564, 2565, 2635, 2634
2484, 2565, 2566, 2636, 2635
2485, 2566, 2567, 2637, 2636
2486, 2567, 2568, 2638, 2637
2487, 2568, 2570, 2639, 2638
2488, 2570, 2640, 2641, 2639
2489, 2640, 2642, 2643, 2641
2490, 2572, 2571, 2644, 2645
2491, 2571, 2573, 2646, 2644
2492, 2573, 2574, 2647, 2646
2493, 2574, 2575, 2648, 2647
2494, 2575, 2576, 2649, 2648
2495, 2576, 2577, 2650, 2649
2496, 2577, 2578, 2651, 2650
2497, 2578, 2579, 2652, 2651
2498, 2579, 2580, 2653, 2652
2499, 2580, 2581, 2654, 2653
2500, 2581, 2582, 2655, 2654
2501, 2582, 2583, 2656, 2655
2502, 2583, 2584, 2657, 2656
2503, 2584, 2585, 2658, 2657
2504, 2585, 2586, 2659, 2658
2505, 2586, 2587, 2660, 2659
2506, 2587, 2588, 2661, 2660
2507, 2588, 2589, 2662, 2661
2508, 2589, 2590, 2663, 2662
2509, 2590, 2591, 2664, 2663
2510, 2591, 2592, 2665, 2664
2511, 2592, 2593, 2666, 2665
2512, 2593, 2594, 2667, 2666
2513, 2594, 2595, 2668, 2667
2514, 2595, 2596, 2669, 2668
2515, 2596, 2597, 2670, 2669
2516, 2597, 2598, 2671, 2670
2517, 2598, 2599, 2672, 2671
2518, 2599, 2600, 2673, 2672
2519, 2600, 2601, 2674, 2673
2520, 2601, 2602, 2675, 2674
2521, 2602, 2603, 2676, 2675
2522, 2603, 2604, 2677, 2676
2523, 2604, 2605, 2678, 2677
2524, 2605, 2606, 2679, 2678
2525, 2606, 2607, 2680, 2679
2526, 2607, 2608, 2681, 2680
2527, 2608, 2609, 2682, 2681
2528, 2609, 2610, 2683, 2682
2529, 2610, 2611, 2684, 2683
2530, 2611, 2612, 2685, 2684
2531, 2612, 2613, 2686, 2685
2532, 2613, 2614, 2687, 2686
2533, 2614, 2615, 2688, 2687
2534, 2615, 2616, 2689, 2688
2535, 2616, 2617, 2690, 2689
2536, 2617, 2618, 2691, 2690
2537, 2618, 2619, 2692, 2691
2538, 2619, 2620, 2693, 2692
2539, 2620, 2621, 2694, 2693
2540, 2621, 2622, 2695, 2694
2541, 2622, 2623, 2696, 2695
2542, 2623, 2624, 2697, 2696
2543, 2624, 2625, 2698, 2697
2544, 2625, 2626, 2699, 2698
2545, 2626, 2627, 2700, 2699
2546, 2627, 2628, 2701, 2700
2547, 2628, 2629, 2702, 2701
2548, 2629, 2630, 2703, 2702
2549, 2630, 2631, 2704, 2703
2550, 2631, 2632, 2705, 2704
2551, 2632, 2633, 2706, 2705
2552, 2633, 2634, 2707, 2706
2553, 2634, 2635, 2708, 2707
2554, 2635, 2636, 2709, 2708
2555, 2636, 2637, 2710, 2709
2556, 2637, 2638, 2711, 2710
2557, 2638, 2639, 2712, 2711
2558, 2639, 2641, 2713, 2712
2559, 2641, 2643, 2714, 2713
2560, 2643, 2715, 2716, 2714
2561, 2715, 2717, 2718, 2716
2562, 2645, 2644, 2719, 2720
2563, 2644, 2646, 2721, 2719
2564, 2646, 2647, 2722, 2721
2565, 2647, 2648, 2723, 2722
2566, 2648, 2649, 2724, 2723
2567, 2649, 2650, 2725, 2724
2568, 2650, 2651, 2726, 2725
2569, 2651, 2652, 2727, 2726
2570, 2652, 2653, 2728, 2727
2571, 2653, 2654, 2729, 2728
2572, 2654, 2655, 2730, 2729
2573, 2655, 2656, 2731, 2730
2574, 2656, 2657, 2732, 2731
2575, 2657, 2658, 2733, 2732
2576, 2658, 2659, 2734, 2733
2577, 2659, 2660, 2735, 2734
2578, 2660, 2661, 2736, 2735
2579, 2661, 2662, 2737, 2736
2580, 2662, 2663, 2738, 2737
2581, 2663, 2664, 2739, 2738
2582, 2664, 2665, 2740, 2739
2583, 2665, 2666, 2741, 2740
2584, 2666, 2667, 2742, 2741
2585, 2667, 2668, 2743, 2742
2586, 2668, 2669, 2744, 2743
2587, 2669, 2670, 2745, 2744
2588, 2670, 2671, 2746, 2745
2589, 2671, 2672, 2747, 2746
2590, 2672, 2673, 2748, 2747
2591, 2673, 2674, 2749, 2748
2592, 2674, 2675, 2750, 2749
2593, 2675, 2676, 2751, 2750
2594, 2676, 2677, 2752, 2751
2595, 2677, 2678, 2753, 2752
2596, 2678, 2679, 2754, 2753
2597, 2679, 2680, 2755, 2754
2598, 2680, 2681, 2756, 2755
2599, 2681, 2682, 2757, 2756
2600, 2682, 2683, 2758, 2757
2601, 2683, 2684, 2759, 2758
2602, 2684, 2685, 2760, 2759
2603, 2685, 2686, 2761, 2760
2604, 2686, 2687, 2762, 2761
2605, 2687, 2688, 2763, 2762
2606, 2688, 2689, 2764, 2763
2607, 2689, 2690, 2765, 2764
2608, 2690, 2691, 2766, 2765
2609, 2691, 2692, 2767, 2766
2610, 2692, 2693, 2768, 2767
2611, 2693, 2694, 2769, 2768
2612, 2694, 2695, 2770, 2769
2613, 2695, 2696, 2771, 2770
2614, 2696, 2697, 2772, 2771
2615, 2697, 2698, 2773, 2772
2616, 2698, 2699, 2774, 2773
2617, 2699, 2700, 2775, 2774
2618, 2700, 2701, 2776, 2775
2619, 2701, 2702, 2777, 2776
2620, 2702, 2703, 2778, 2777
2621, 2703, 2704, 2779, 2778
2622, 2704, 2705, 2780, 2779
2623, 2705, 2706, 2781, 2780
2624, 2706, 2707, 2782, 2781
2625, 2707, 2708, 2783, 2782
2626, 2708, 2709, 2784, 2783
2627, 2709, 2710, 2785, 2784
2628, 2710, 2711, 2786, 2785
2629, 2711, 2712, 2787, 2786
2630, 2712, 2713, 2788, 2787
2631, 2713, 2714, 2789, 2788
2632, 2714, 2716, 2790, 2789
2633, 2716, 2718, 2791, 2790
2634, 2718, 2792, 2793, 2791
2635, 2792, 2794, 2795, 2793
2636, 2720, 2719, 2796, 2797
2637, 2719, 2721, 2798, 2796
2638, 2721, 2722, 2799, 2798
2639, 2722, 2723, 2800, 2799
2640, 2723, 2724, 2801, 2800
2641, 2724, 2725, 2802, 2801
2642, 2725, 2726, 2803, 2802
2643, 2726, 2727, 2804, 2803
2644, 2727, 2728, 2805, 2804
2645, 2728, 2729, 2806, 2805
2646, 2729, 2730, 2807, 2806
2647, 2730, 2731, 2808, 2807
2648, 2731, 2732, 2809, 2808
2649, 2732, 2733, 2810, 2809
2650, 2733, 2734, 2811, 2810
2651, 2734, 2735, 2812, 2811
2652, 2735, 2736, 2813, 2812
2653, 2736, 2737, 2814, 2813
2654, 2737, 2738, 2815, 2814
2655, 2738, 2739, 2816, 2815
2656, 2739, 2740, 2817, 2816
2657, 2740, 2741, 2818, 2817
2658, 2741, 2742, 2819, 2818
2659, 2742, 2743, 2820, 2819
2660, 2743, 2744, 2821, 2820
2661, 2744, 2745, 2822, 2821
2662, 2745, 2746, 2823, 2822
2663, 2746, 2747, 2824, 2823
2664, 2747, 2748, 2825, 2824
2665, 2748, 2749, 2826, 2825
2666, 2749, 2750, 2827, 2826
2667, 2750, 2751, 2828, 2827
2668, 2751, 2752, 2829, 2828
2669, 2752, 2753, 2830, 2829
2670, 2753, 2754, 2831, 2830
2671, 2754, 2755, 2832, 2831
2672, 2755, 2756, 2833, 2832
2673, 2756, 2757, 2834, 2833
2674, 2757, 2758, 2835, 2834
2675, 2758, 2759, 2836, 2835
2676, 2759, 2760, 2837, 2836
2677, 2760, 2761, 2838, 2837
2678, 2761, 2762, 2839, 2838
2679, 2762, 2763, 2840, 2839
2680, 2763, 2764, 2841, 2840
2681, 2764, 2765, 2842, 2841
2682, 2765, 2766, 2843, 2842
2683, 2766, 2767, 2844, 2843
2684, 2767, 2768, 2845, 2844
2685, 2768, 2769, 2846, 2845
2686, 2769, 2770, 2847, 2846
2687, 2770, 2771, 2848, 2847
2688, 2771, 2772, 2849, 2848
2689, 2772, 2773, 2850, 2849
2690, 2773, 2774, 2851, 2850
2691, 2774, 2775, 2852, 2851
2692, 2775, 2776, 2853, 2852
2693, 2776, 2777, 2854, 2853
2694, 2777, 2778, 2855, 2854
2695, 2778, 2779, 2856, 2855
2696, 2779, 2780, 2857, 2856
2697, 2780, 2781, 2858, 2857
2698, 2781, 2782, 2859, 2858
2699, 2782, 2783, 2860, 2859
2700, 2783, 2784, 2861, 2860
2701, 2784, 2785, 2862, 2861
2702, 2785, 2786, 2863, 2862
2703, 2786, 2787, 2864, 2863
2704, 2787, 2788, 2865, 2864
2705, 2788, 2789, 2866, 2865
2706, 2789, 2790, 2867, 2866
2707, 2790, 2791, 2868, 2867
2708, 2791, 2793, 2869, 2868
2709, 2793, 2795, 2870, 2869
2710, 2795, 2871, 2872, 2870
2711, 2871, 2873, 2874, 2872
2712, 2873, 2875, 2876, 2874
2713, 2797, 2796, 2877, 2878
2714, 2796, 2798, 2879, 2877
2715, 2798, 2799, 2880, 2879
2716, 2799, 2800, 2881, 2880
2717, 2800, 2801, 2882, 2881
2718, 2801, 2802, 2883, 2882
2719, 2802, 2803, 2884, 2883
2720, 2803, 2804, 2885, 2884
2721, 2804, 2805, 2886, 2885
2722, 2805, 2806, 2887, 2886
2723, 2806, 2807, 2888, 2887
2724, 2807, 2808, 2889, 2888
2725, 2808, 2809, 2890, 2889
2726, 2809, 2810, 2891, 2890
2727, 2810, 2811, 2892, 2891
2728, 2811, 2812, 2893, 2892
2729, 2812, 2813, 2894, 2893
2730, 2813, 2814, 2895, 2894
2731, 2814, 2815, 2896, 2895
2732, 2815, 2816, 2897, 2896
2733, 2816, 2817, 2898, 2897
2734, 2817, 2818, 2899, 2898
2735, 2818, 2819, 2900, 2899
2736, 2819, 2820, 2901, 2900
2737, 2820, 2821, 2902, 2901
2738, 2821, 2822, 2903, 2902
2739, 2822, 2823, 2904, 2903
2740, 2823, 2824, 2905, 2904
2741, 2824, 2825, 2906, 2905
2742, 2825, 2826, 2907, 2906
2743, 2826, 2827, 2908, 2907
2744, 2827, 2828, 2909, 2908
2745, 2828, 2829, 2910, 2909
2746, 2829, 2830, 2911, 2910
2747, 2830, 2831, 2912, 2911
2748, 2831, 2832, 2913, 2912
2749, 2832, 2833, 2914, 2913
2750, 2833, 2834, 2915, 2914
2751, 2834, 2835, 2916, 2915
2752, 2835, 2836, 2917, 2916
2753, 2836, 2837, 2918, 2917
2754, 2837, 2838, 2919, 2918
2755, 2838, 2839, 2920, 2919
2756, 2839, 2840, 2921, 2920
2757, 2840, 2841, 2922, 2921
2758, 2841, 2842, 2923, 2922
2759, 2842, 2843, 2924, 2923
2760, 2843, 2844, 2925, 2924
2761, 2844, 2845, 2926, 2925
2762, 2845, 2846, 2927, 2926
2763, 2846, 2847, 2928, 2927
2764, 2847, 2848, 2929, 2928
2765, 2848, 2849, 2930, 2929
2766, 2849, 2850, 2931, 2930
2767, 2850, 2851, 2932, 2931
2768, 2851, 2852, 2933, 2932
2769, 2852, 2853, 2934, 2933
2770, 2853, 2854, 2935, 2934
2771, 2854, 2855, 2936, 2935
2772, 2855, 2856, 2937, 2936
2773, 2856, 2857, 2938, 2937
2774, 2857, 2858, 2939, 2938
2775, 2858, 2859, 2940, 2939
2776, 2859, 2860, 2941, 2940
2777, 2860, 2861, 2942, 2941
2778, 2861, 2862, 2943, 2942
2779, 2862, 2863, 2944, 2943
2780, 2863, 2864, 2945, 2944
2781, 2864, 2865, 2946, 2945
2782, 2865, 2866, 2947, 2946
2783, 2866, 2867, 2948, 2947
2784, 2867, 2868, 2949, 2948
2785, 2868, 2869, 2950, 2949
2786, 2869, 2870, 2951, 2950
2787, 2870, 2872, 2952, 2951
2788, 2872, 2874, 2953, 2952
2789, 2874, 2876, 2954, 2953
2790, 2876, 2955, 2956, 2954
2791, 2955, 2957, 2958, 2956
2792, 2878, 2877, 2959, 2960
2793, 2877, 2879, 2961, 2959
2794, 2879, 2880, 2962, 2961
2795, 2880, 2881, 2963, 2962
2796, 2881, 2882, 2964, 2963
2797, 2882, 2883, 2965, 2964
2798, 2883, 2884, 2966, 2965
2799, 2884, 2885, 2967, 2966
2800, 2885, 2886, 2968, 2967
2801, 2886, 2887, 2969, 2968
2802, 2887, 2888, 2970, 2969
2803, 2888, 2889, 2971, 2970
2804, 2889, 2890, 2972, 2971
2805, 2890, 2891, 2973, 2972
2806, 2891, 2892, 2974, 2973
2807, 2892, 2893, 2975, 2974
2808, 2893, 2894, 2976, 2975
2809, 2894, 2895, 2977, 2976
2810, 2895, 2896, 2978, 2977
2811, 2896, 2897, 2979, 2978
2812, 2897, 2898, 2980, 2979
2813, 2898, 2899, 2981, 2980
2814, 2899, 2900, 2982, 2981
2815, 2900, 2901, 2983, 2982
2816, 2901, 2902, 2984, 2983
2817, 2902, 2903, 2985, 2984
2818, 2903, 2904, 2986, 2985
2819, 2904, 2905, 2987, 2986
2820, 2905, 2906, 2988, 2987
2821, 2906, 2907, 2989, 2988
2822, 2907, 2908, 2990, 2989
2823, 2908, 2909, 2991, 2990
2824, 2909, 2910, 2992, 2991
2825, 2910, 2911, 2993, 2992
2826, 2911, 2912, 2994, 2993
2827, 2912, 2913, 2995, 2994
2828, 2913, 2914, 2996, 2995
2829, 2914, 2915, 2997, 2996
2830, 2915, 2916, 2998, 2997
2831, 2916, 2917, 2999, 2998
2832, 2917, 2918, 3000, 2999
2833, 2918, 2919, 3001, 3000
2834, 2919, 2920, 3002, 3001
2835, 2920, 2921, 3003, 3002
2836, 2921, 2922, 3004, 3003
2837, 2922, 2923, 3005, 3004
2838, 2923, 2924, 3006, 3005
2839, 2924, 2925, 3007, 3006
2840, 2925, 2926, 3008, 3007
2841, 2926, 2927, 3009, 3008
2842, 2927, 2928, 3010, 3009
2843, 2928, 2929, 3011, 3010
2844, 2929, 2930, 3012, 3011
2845, 2930, 2931, 3013, 3012
2846, 2931, 2932, 3014, 3013
2847, 2932, 2933, 3015, 3014
2848, 2933, 2934, 3016, 3015
2849, 2934, 2935, 3017, 3016
2850, 2935, 2936, 3018, 3017
2851, 2936, 2937, 3019, 3018
2852, 2937, 2938, 3020, 3019
2853, 2938, 2939, 3021, 3020
2854, 2939, 2940, 3022, 3021
2855, 2940, 2941, 3023, 3022
2856, 2941, 2942, 3024, 3023
2857, 2942, 2943, 3025, 3024
2858, 2943, 2944, 3026, 3025
2859, 2944, 2945, 3027, 3026
2860, 2945, 2946, 3028, 3027
2861, 2946, 2947, 3029, 3028
2862, 2947, 2948, 3030, 3029
2863, 2948, 2949, 3031, 3030
2864, 2949, 2950, 3032, 3031
2865, 2950, 2951, 3033, 3032
2866, 2951, 2952, 3034, 3033
2867, 2952, 2953, 3035, 3034
2868, 2953, 2954, 3036, 3035
2869, 2954, 2956, 3037, 3036
2870, 2956, 2958, 3038, 3037
2871, 2958, 3039, 3040, 3038
2872, 3039, 3041, 3042, 3040
2873, 2960, 2959, 3043, 3044
2874, 2959, 2961, 3045, 3043
2875, 2961, 2962, 3046, 3045
2876, 2962, 2963, 3047, 3046
2877, 2963, 2964, 3048, 3047
2878, 2964, 2965, 3049, 3048
2879, 2965, 2966, 3050, 3049
2880, 2966, 2967, 3051, 3050
2881, 2967, 2968, 3052, 3051
2882, 2968, 2969, 3053, 3052
2883, 2969, 2970, 3054, 3053
2884, 2970, 2971, 3055, 3054
2885, 2971, 2972, 3056, 3055
2886, 2972, 2973, 3057, 3056
2887, 2973, 2974, 3058, 3057
2888, 2974, 2975, 3059, 3058
2889, 2975, 2976, 3060, 3059
2890, 2976, 2977, 3061, 3060
2891, 2977, 2978, 3062, 3061
2892, 2978, 2979, 3063, 3062
2893, 2979, 2980, 3064, 3063
2894, 2980, 2981, 3065, 3064
2895, 2981, 2982, 3066, 3065
2896, 2982, 2983, 3067, 3066
2897, 2983, 2984, 3068, 3067
2898, 2984, 2985, 3069, 3068
2899, 2985, 2986, 3070, 3069
2900, 2986, 2987, 3071, 3070
2901, 2987, 2988, 3072, 3071
2902, 2988, 2989, 3073, 3072
2903, 2989, 2990, 3074, 3073
2904, 2990, 2991, 3075, 3074
2905, 2991, 2992, 3076, 3075
2906, 2992, 2993, 3077, 3076
2907, 2993, 2994, 3078, 3077
2908, 2994, 2995, 3079, 3078
2909, 2995, 2996, 3080, 3079
2910, 2996, 2997, 3081, 3080
2911, 2997, 2998, 3082, 3081
2912, 2998, 2999, 3083, 3082
2913, 2999, 3000, 3084, 3083
2914, 3000, 3001, 3085, 3084
2915, 3001, 3002, 3086, 3085
2916, 3002, 3003, 3087, 3086
2917, 3003, 3004, 3088, 3087
2918, 3004, 3005, 3089, 3088
2919, 3005, 3006, 3090, 3089
2920, 3006, 3007, 3091, 3090
2921, 3007, 3008, 3092, 3091
2922, 3008, 3009, 3093, 3092
2923, 3009, 3010, 3094, 3093
2924, 3010, 3011, 3095, 3094
2925, 3011, 3012, 3096, 3095
2926, 3012, 3013, 3097, 3096
2927, 3013, 3014, 3098, 3097
2928, 3014, 3015, 3099, 3098
2929, 3015, 3016, 3100, 3099
2930, 3016, 3017, 3101, 3100
2931, 3017, 3018, 3102, 3101
2932, 3018, 3019, 3103, 3102
2933, 3019, 3020, 3104, 3103
2934, 3020, 3021, 3105, 3104
2935, 3021, 3022, 3106, 3105
2936, 3022, 3023, 3107, 3106
2937, 3023, 3024, 3108, 3107
2938, 3024, 3025, 3109, 3108
2939, 3025, 3026, 3110, 3109
2940, 3026, 3027, 3111, 3110
2941, 3027, 3028, 3112, 3111
2942, 3028, 3029, 3113, 3112
2943, 3029, 3030, 3114, 3113
2944, 3030, 3031, 3115, 3114
2945, 3031, 3032, 3116, 3115
2946, 3032, 3033, 3117, 3116
2947, 3033, 3034, 3118, 3117
2948, 3034, 3035, 3119, 3118
2949, 3035, 3036, 3120, 3119
2950, 3036, 3037, 3121, 3120
2951, 3037, 3038, 3122, 3121
2952, 3038, 3040, 3123, 3122
2953, 3040, 3042, 3124, 3123
2954, 3042, 3125, 3126, 3124
2955, 3125, 3127, 3128, 3126
2956, 3044, 3043, 3129, 3130
2957, 3043, 3045, 3131, 3129
2958, 3045, 3046, 3132, 3131
2959, 3046, 3047, 3133, 3132
2960, 3047, 3048, 3134, 3133
2961, 3048, 3049, 3135, 3134
2962, 3049, 3050, 3136, 3135
2963, 3050, 3051, 3137, 3136
2964, 3051, 3052, 3138, 3137
2965, 3052, 3053, 3139, 3138
2966, 3053, 3054, 3140, 3139
2967, 3054, 3055, 3141, 3140
2968, 3055, 3056, 3142, 3141
2969, 3056, 3057, 3143, 3142
2970, 3057, 3058, 3144, 3143
2971, 3058, 3059, 3145, 3144
2972, 3059, 3060, 3146, 3145
2973, 3060, 3061, 3147, 3146
2974, 3061, 3062, 3148, 3147
2975, 3062, 3063, 3149, 3148
2976, 3063, 3064, 3150, 3149
2977, 3064, 3065, 3151, 3150
2978, 3065, 3066, 3152, 3151
2979, 3066, 3067, 3153, 3152
2980, 3067, 3068, 3154, 3153
2981, 3068, 3069, 3155, 3154
2982, 3069, 3070, 3156, 3155
2983, 3070, 3071, 3157, 3156
2984, 3071, 3072, 3158, 3157
2985, 3072, 3073, 3159, 3158
2986, 3073, 3074, 3160, 3159
2987, 3074, 3075, 3161, 3160
2988, 3075, 3076, 3162, 3161
2989, 3076, 3077, 3163, 3162
2990, 3077, 3078, 3164, 3163
2991, 3078, 3079, 3165, 3164
2992, 3079, 3080, 3166, 3165
2993, 3080, 3081, 3167, 3166
2994, 3081, 3082, 3168, 3167
2995, 3082, 3083, 3169, 3168
2996, 3083, 3084, 3170, 3169
2997, 3084, 3085, 3171, 3170
2998, 3085, 3086, 3172, 3171
2999, 3086, 3087, 3173, 3172
3000, 3087, 3088, 3174, 3173
3001, 3088, 3089, 3175, 3174
3002, 3089, 3090, 3176, 3175
3003, 3090, 3091, 3177, 3176
3004, 3091, 3092, 3178, 3177
3005, 3092, 3093, 3179, 3178
3006, 3093, 3094, 3180, 3179
3007, 3094, 3095, 3181, 3180
3008, 3095, 3096, 3182, 3181
3009, 3096, 3097, 3183, 3182
3010, 3097, 3098, 3184, 3183
3011, 3098, 3099, 3185, 3184
3012, 3099, 3100, 3186, 3185
3013, 3100, 3101, 3187, 3186
3014, 3101, 3102, 3188, 3187
3015, 3102, 3103, 3189, 3188
3016, 3103, 3104, 3190, 3189
3017, 3104, 3105, 3191, 3190
3018, 3105, 3106, 3192, 3191
3019, 3106, 3107, 3193, 3192
3020, 3107, 3108, 3194, 3193
3021, 3108, 3109, 3195, 3194
3022, 3109, 3110, 3196, 3195
3023, 3110, 3111, 3197, 3196
3024, 3111, 3112, 3198, 3197
3025, 3112, 3113, 3199, 3198
3026, 3113, 3114, 3200, 3199
3027, 3114, 3115, 3201, 3200
3028, 3115, 3116, 3202, 3201
3029, 3116, 3117, 3203, 3202
3030, 3117, 3118, 3204, 3203
3031, 3118, 3119, 3205, 3204
3032, 3119, 3120, 3206, 3205
3033, 3120, 3121, 3207, 3206
3034, 3121, 3122, 3208, 3207
3035, 3122, 3123, 3209, 3208
3036, 3123, 3124, 3210, 3209
3037, 3124, 3126, 3211, 3210
3038, 3126, 3128, 3212, 3211
3039, 3128, 3213, 3214, 3212
3040, 3213, 3215, 3216, 3214
3041, 3215, 3217, 3218, 3216
3042, 3217, 3219, 3220, 3218
3043, 3130, 3129, 3221, 3222
3044, 3129, 3131, 3223, 3221
3045, 3131, 3132, 3224, 3223
3046, 3132, 3133, 3225, 3224
3047, 3133, 3134, 3226, 3225
3048, 3134, 3135, 3227, 3226
3049, 3135, 3136, 3228, 3227
3050, 3136, 3137, 3229, 3228
3051, 3137, 3138, 3230, 3229
3052, 3138, 3139, 3231, 3230
3053, 3139, 3140, 3232, 3231
3054, 3140, 3141, 3233, 3232
3055, 3141, 3142, 3234, 3233
3056, 3142, 3143, 3235, 3234
3057, 3143, 3144, 3236, 3235
3058, 3144, 3145, 3237, 3236
3059, 3145, 3146, 3238, 3237
3060, 3146, 3147, 3239, 3238
3061, 3147, 3148, 3240, 3239
3062, 3148, 3149, 3241, 3240
3063, 3149, 3150, 3242, 3241
3064, 3150, 3151, 3243, 3242
3065, 3151, 3152, 3244, 3243
3066, 3152, 3153, 3245, 3244
3067, 3153, 3154, 3246, 3245
3068, 3154, 3155, 3247, 3246
3069, 3155, 3156, 3248, 3247
3070, 3156, 3157, 3249, 3248
3071, 3157, 3158, 3250, 3249
3072, 3158, 3159, 3251, 3250
3073, 3159, 3160, 3252, 3251
3074, 3160, 3161, 3253, 3252
3075, 3161, 3162, 3254, 3253
3076, 3162, 3163, 3255, 3254
3077, 3163, 3164, 3256, 3255
3078, 3164, 3165, 3257, 3256
3079, 3165, 3166, 3258, 3257
3080, 3166, 3167, 3259, 3258
3081, 3167, 3168, 3260, 3259
3082, 3168, 3169, 3261, 3260
3083, 3169, 3170, 3262, 3261
3084, 3170, 3171, 3263, 3262
3085, 3171, 3172, 3264, 3263
3086, 3172, 3173, 3265, 3264
3087, 3173, 3174, 3266, 3265
3088, 3174, 3175, 3267, 3266
3089, 3175, 3176, 3268, 3267
3090, 3176, 3177, 3269, 3268
3091, 3177, 3178, 3270, 3269
3092, 3178, 3179, 3271, 3270
3093, 3179, 3180, 3272, 3271
3094, 3180, 3181, 3273, 3272
3095, 3181, 3182, 3274, 3273
3096, 3182, 3183, 3275, 3274
3097, 3183, 3184, 3276, 3275
3098, 3184, 3185, 3277, 3276
3099, 3185, 3186, 3278, 3277
3100, 3186, 3187, 3279, 3278
3101, 3187, 3188, 3280, 3279
3102, 3188, 3189, 3281, 3280
3103, 3189, 3190, 3282, 3281
3104, 3190, 3191, 3283, 3282
3105, 3191, 3192, 3284, 3283
3106, 3192, 3193, 3285, 3284
3107, 3193, 3194, 3286, 3285
3108, 3194, 3195, 3287, 3286
3109, 3195, 3196, 3288, 3287
3110, 3196, 3197, 3289, 3288
3111, 3197, 3198, 3290, 3289
3112, 3198, 3199, 3291, 3290
3113, 3199, 3200, 3292, 3291
3114, 3200, 3201, 3293, 3292
3115, 3201, 3202, 3294, 3293
3116, 3202, 3203, 3295, 3294
3117, 3203, 3204, 3296, 3295
3118, 3204, 3205, 3297, 3296
3119, 3205, 3206, 3298, 3297
3120, 3206, 3207, 3299, 3298
3121, 3207, 3208, 3300, 3299
3122, 3208, 3209, 3301, 3300
3123, 3209, 3210, 3302, 3301
3124, 3210, 3211, 3303, 3302
3125, 3211, 3212, 3304, 3303
3126, 3212, 3214, 3305, 3304
3127, 3214, 3216, 3306, 3305
3128, 3216, 3218, 3307, 3306
3129, 3218, 3220, 3308, 3307
3130, 3220, 3309, 3310, 3308
3131, 3309, 3311, 3312, 3310
3132, 3222, 3221, 3313, 3314
3133, 3221, 3223, 3315, 3313
3134, 3223, 3224, 3316, 3315
3135, 3224, 3225, 3317, 3316
3136, 3225, 3226, 3318, 3317
3137, 3226, 3227, 3319, 3318
3138, 3227, 3228, 3320, 3319
3139, 3228, 3229, 3321, 3320
3140, 3229, 3230, 3322, 3321
3141, 3230, 3231, 3323, 3322
3142, 3231, 3232, 3324, 3323
3143, 3232, 3233, 3325, 3324
3144, 3233, 3234, 3326, 3325
3145, 3234, 3235, 3327, 3326
3146, 3235, 3236, 3328, 3327
3147, 3236, 3237, 3329, 3328
3148, 3237, 3238, 3330, 3329
3149, 3238, 3239, 3331, 3330
3150, 3239, 3240, 3332, 3331
3151, 3240, 3241, 3333, 3332
3152, 3241, 3242, 3334, 3333
3153, 3242, 3243, 3335, 3334
3154, 3243, 3244, 3336, 3335
3155, 3244, 3245, 3337, 3336
3156, 3245, 3246, 3338, 3337
3157, 3246, 3247, 3339, 3338
3158, 3247, 3248, 3340, 3339
3159, 3248, 3249, 3341, 3340
3160, 3249, 3250, 3342, 3341
3161, 3250, 3251, 3343, 3342
3162, 3251, 3252, 3344, 3343
3163, 3252, 3253, 3345, 3344
3164, 3253, 3254, 3346, 3345
3165, 3254, 3255, 3347, 3346
3166, 3255, 3256, 3348, 3347
3167, 3256, 3257, 3349, 3348
3168, 3257, 3258, 3350, 3349
3169, 3258, 3259, 3351, 3350
3170, 3259, 3260, 3352, 3351
3171, 3260, 3261, 3353, 3352
3172, 3261, 3262, 3354, 3353
3173, 3262, 3263, 3355, 3354
3174, 3263, 3264, 3356, 3355
3175, 3264, 3265, 3357, 3356
3176, 3265, 3266, 3358, 3357
3177, 3266, 3267, 3359, 3358
3178, 3267, 3268, 3360, 3359
3179, 3268, 3269, 3361, 3360
3180, 3269, 3270, 3362, 3361
3181, 3270, 3271, 3363, 3362
3182, 3271, 3272, 3364, 3363
3183, 3272, 3273, 3365, 3364
3184, 3273, 3274, 3366, 3365
3185, 3274, 3275, 3367, 3366
3186, 3275, 3276, 3368, 3367
3187, 3276, 3277, 3369, 3368
3188, 3277, 3278, 3370, 3369
3189, 3278, 3279, 3371, 3370
3190, 3279, 3280, 3372, 3371
3191, 3280, 3281, 3373, 3372
3192, 3281, 3282, 3374, 3373
3193, 3282, 3283, 3375, 3374
3194, 3283, 3284, 3376, 3375
3195, 3284, 3285, 3377, 3376
3196, 3285, 3286, 3378, 3377
3197, 3286, 3287, 3379, 3378
3198, 3287, 3288, 3380, 3379
3199, 3288, 3289, 3381, 3380
3200, 3289, 3290, 3382, 3381
3201, 3290, 3291, 3383, 3382
3202, 3291, 3292, 3384, 3383
3203, 3292, 3293, 3385, 3384
3204, 3293, 3294, 3386, 3385
3205, 3294, 3295, 3387, 3386
3206, 3295, 3296, 3388, 3387
3207, 3296, 3297, 3389, 3388
3208, 3297, 3298, 3390, 3389
3209, 3298, 3299, 3391, 3390
3210, 3299, 3300, 3392, 3391
3211, 3300, 3301, 3393, 3392
3212, 3301, 3302, 3394, 3393
3213, 3302, 3303, 3395, 3394
3214, 3303, 3304, 3396, 3395
3215, 3304, 3305, 3397, 3396
3216, 3305, 3306, 3398, 3397
3217, 3306, 3307, 3399, 3398
3218, 3307, 3308, 3400, 3399
3219, 3308, 3310, 3401, 3400
3220, 3310, 3312, 3402, 3401
3221, 3312, 3403, 3404, 3402
3222, 3403, 3405, 3406, 3404
3223, 3405, 3407, 3408, 3406
3224, 3314, 3313, 3409, 3410
3225, 3313, 3315, 3411, 3409
3226, 3315, 3316, 3412, 3411
3227, 3316, 3317, 3413, 3412
3228, 3317, 3318, 3414, 3413
3229, 3318, 3319, 3415, 3414
3230, 3319, 3320, 3416, 3415
3231, 3320, 3321, 3417, 3416
3232, 3321, 3322, 3418, 3417
3233, 3322, 3323, 3419, 3418
3234, 3323, 3324, 3420, 3419
3235, 3324, 3325, 3421, 3420
3236, 3325, 3326, 3422, 3421
3237, 3326, 3327, 3423, 3422
3238, 3327, 3328, 3424, 3423
3239, 3328, 3329, 3425, 3424
3240, 3329, 3330, 3426, 3425
3241, 3330, 3331, 3427, 3426
3242, 3331, 3332, 3428, 3427
3243, 3332, 3333, 3429, 3428
3244, 3333, 3334, 3430, 3429
3245, 3334, 3335, 3431, 3430
3246, 3335, 3336, 3432, 3431
3247, 3336, 3337, 3433, 3432
3248, 3337, 3338, 3434, 3433
3249, 3338, 3339, 3435, 3434
3250, 3339, 3340, 3436, 3435
3251, 3340, 3341, 3437, 3436
3252, 3341, 3342, 3438, 3437
3253, 3342, 3343, 3439, 3438
3254, 3343, 3344, 3440, 3439
3255, 3344, 3345, 3441, 3440
3256, 3345, 3346, 3442, 3441
3257, 3346, 3347, 3443, 3442
3258, 3347, 3348, 3444, 3443
3259, 3348, 3349, 3445, 3444
3260, 3349, 3350, 3446, 3445
3261, 3350, 3351, 3447, 3446
3262, 3351, 3352, 3448, 3447
3263, 3352, 3353, 3449, 3448
3264, 3353, 3354, 3450, 3449
3265, 3354, 3355, 3451, 3450
3266, 3355, 3356, 3452, 3451
3267, 3356, 3357, 3453, 3452
3268, 3357, 3358, 3454, 3453
3269, 3358, 3359, 3455, 3454
3270, 3359, 3360, 3456, 3455
3271, 3360, 3361, 3457, 3456
3272, 3361, 3362, 3458, 3457
3273, 3362, 3363, 3459, 3458
3274, 3363, 3364, 3460, 3459
3275, 3364, 3365, 3461, 3460
3276, 3365, 3366, 3462, 3461
3277, 3366, 3367, 3463, 3462
3278, 3367, 3368, 3464, 3463
3279, 3368, 3369, 3465, 3464
3280, 3369, 3370, 3466, 3465
3281, 3370, 3371, 3467, 3466
3282, 3371, 3372, 3468, 3467
3283, 3372, 3373, 3469, 3468
3284, 3373, 3374, 3470, 3469
3285, 3374, 3375, 3471, 3470
3286, 3375, 3376, 3472, 3471
3287, 3376, 3377, 3473, 3472
3288, 3377, 3378, 3474, 3473
3289, 3378, 3379, 3475, 3474
3290, 3379, 3380, 3476, 3475
3291, 3380, 3381, 3477, 3476
3292, 3381, 3382, 3478, 3477
3293, 3382, 3383, 3479, 3478
3294, 3383, 3384, 3480, 3479
3295, 3384, 3385, 3481, 3480
3296, 3385, 3386, 3482, 3481
3297, 3386, 3387, 3483, 3482
3298, 3387, 3388, 3484, 3483
3299, 3388, 3389, 3485, 3484
3300, 3389, 3390, 3486, 3485
3301, 3390, 3391, 3487, 3486
3302, 3391, 3392, 3488, 3487
3303, 3392, 3393, 3489, 3488
3304, 3393, 3394, 3490, 3489
3305, 3394, 3395, 3491, 3490
3306, 3395, 3396, 3492, 3491
3307, 3396, 3397, 3493, 3492
3308, 3397, 3398, 3494, 3493
3309, 3398, 3399, 3495, 3494
3310, 3399, 3400, 3496, 3495
3311, 3400, 3401, 3497, 3496
3312, 3401, 3402, 3498, 3497
3313, 3402, 3404, 3499, 3498
3314, 3404, 3406, 3500, 3499
3315, 3406, 3408, 3501, 3500
3316, 3408, 3502, 3503, 3501
3317, 3502, 3504, 3505, 3503
3318, 3410, 3409, 3506, 3507
3319, 3409, 3411, 3508, 3506
3320, 3411, 3412, 3509, 3508
3321, 3412, 3413, 3510, 3509
3322, 3413, 3414, 3511, 3510
3323, 3414, 3415, 3512, 3511
3324, 3415, 3416, 3513, 3512
3325, 3416, 3417, 3514, 3513
3326, 3417, 3418, 3515, 3514
3327, 3418, 3419, 3516, 3515
3328, 3419, 3420, 3517, 3516
3329, 3420, 3421, 3518, 3517
3330, 3421, 3422, 3519, 3518
3331, 3422, 3423, 3520, 3519
3332, 3423, 3424, 3521, 3520
3333, 3424, 3425, 3522, 3521
3334, 3425, 3426, 3523, 3522
3335, 3426, 3427, 3524, 3523
3336, 3427, 3428, 3525, 3524
3337, 3428, 3429, 3526, 3525
3338, 3429, 3430, 3527, 3526
3339, 3430, 3431, 3528, 3527
3340, 3431, 3432, 3529, 3528
3341, 3432, 3433, 3530, 3529
3342, 3433, 3434, 3531, 3530
3343, 3434, 3435, 3532, 3531
3344, 3435, 3436, 3533, 3532
3345, 3436, 3437, 3534, 3533
3346, 3437, 3438, 3535, 3534
3347, 3438, 3439, 3536, 3535
3348, 3439, 3440, 3537, 3536
3349, 3440, 3441, 3538, 3537
3350, 3441, 3442, 3539, 3538
3351, 3442, 3443, 3540, 3539
3352, 3443, 3444, 3541, 3540
3353, 3444, 3445, 3542, 3541
3354, 3445, 3446, 3543, 3542
3355, 3446, 3447, 3544, 3543
3356, 3447, 3448, 3545, 3544
3357, 3448, 3449, 3546, 3545
3358, 3449, 3450, 3547, 3546
3359, 3450, 3451, 3548, 3547
3360, 3451, 3452, 3549, 3548
3361, 3452, 3453, 3550, 3549
3362, 3453, 3454, 3551, 3550
3363, 3454, 3455, 3552, 3551
3364, 3455, 3456, 3553, 3552
3365, 3456, 3457, 3554, 3553
3366, 3457, 3458, 3555, 3554
3367, 3458, 3459, 3556, 3555
3368, 3459, 3460, 3557, 3556
3369, 3460, 3461, 3558, 3557
3370, 3461, 3462, 3559, 3558
3371, 3462, 3463, 3560, 3559
3372, 3463, 3464, 3561, 3560
3373, 3464, 3465, 3562, 3561
3374, 3465, 3466, 3563, 3562
3375, 3466, 3467, 3564, 3563
3376, 3467, 3468, 3565, 3564
3377, 3468, 3469, 3566, 3565
3378, 3469, 3470, 3567, 3566
3379, 3470, 3471, 3568, 3567
3380, 3471, 3472, 3569, 3568
3381, 3472, 3473, 3570, 3569
3382, 3473, 3474, 3571, 3570
3383, 3474, 3475, 3572, 3571
3384, 3475, 3476, 3573, 3572
3385, 3476, 3477, 3574, 3573
3386, 3477, 3478, 3575, 3574
3387, 3478, 3479, 3576, 3575
3388, 3479, 3480, 3577, 3576
3389, 3480, 3481, 3578, 3577
3390, 3481, 3482, 3579, 3578
3391, 3482, 3483, 3580, 3579
3392, 3483, 3484, 3581, 3580
3393, 3484, 3485, 3582, 3581
3394, 3485, 3486, 3583, 3582
3395, 3486, 3487, 3584, 3583
3396, 3487, 3488, 3585, 3584
3397, 3488, 3489, 3586, 3585
3398, 3489, 3490, 3587, 3586
3399, 3490, 3491, 3588, 3587
3400, 3491, 3492, 3589, 3588
3401, 3492, 3493, 3590, 3589
3402, 3493, 3494, 3591, 3590
3403, 3494, 3495, 3592, 3591
3404, 3495, 3496, 3593, 3592
3405, 3496, 3497, 3594, 3593
3406, 3497, 3498, 3595, 3594
3407, 3498, 3499, 3596, 3595
3408, 3499, 3500, 3597, 3596
3409, 3500, 3501, 3598, 3597
3410, 3501, 3503, 3599, 3598
3411, 3503, 3505, 3600, 3599
3412, 3505, 3601, 3602, 3600
3413, 3601, 3603, 3604, 3602
3414, 3603, 3605, 3606, 3604
3415, 3605, 3607, 3608, 3606
3416, 3607, 3609, 3610, 3608
3417, 3507, 3506, 3611, 3612
3418, 3506, 3508, 3613, 3611
3419, 3508, 3509, 3614, 3613
3420, 3509, 3510, 3615, 3614
3421, 3510, 3511, 3616, 3615
3422, 3511, 3512, 3617, 3616
3423, 3512, 3513, 3618, 3617
3424, 3513, 3514, 3619, 3618
3425, 3514, 3515, 3620, 3619
3426, 3515, 3516, 3621, 3620
3427, 3516, 3517, 3622, 3621
3428, 3517, 3518, 3623, 3622
3429, 3518, 3519, 3624, 3623
3430, 3519, 3520, 3625, 3624
3431, 3520, 3521, 3626, 3625
3432, 3521, 3522, 3627, 3626
3433, 3522, 3523, 3628, 3627
3434, 3523, 3524, 3629, 3628
3435, 3524, 3525, 3630, 3629
3436, 3525, 3526, 3631, 3630
3437, 3526, 3527, 3632, 3631
3438, 3527, 3528, 3633, 3632
3439, 3528, 3529, 3634, 3633
3440, 3529, 3530, 3635, 3634
3441, 3530, 3531, 3636, 3635
3442, 3531, 3532, 3637, 3636
3443, 3532, 3533, 3638, 3637
3444, 3533, 3534, 3639, 3638
3445, 3534, 3535, 3640, 3639
3446, 3535, 3536, 3641, 3640
3447, 3536, 3537, 3642, 3641
3448, 3537, 3538, 3643, 3642
3449, 3538, 3539, 3644, 3643
3450, 3539, 3540, 3645, 3644
3451, 3540, 3541, 3646, 3645
3452, 3541, 3542, 3647, 3646
3453, 3542, 3543, 3648, 3647
3454, 3543, 3544, 3649, 3648
3455, 3544, 3545, 3650, 3649
3456, 3545, 3546, 3651, 3650
3457, 3546, 3547, 3652, 3651
3458, 3547, 3548, 3653, 3652
3459, 3548, 3549, 3654, 3653
3460, 3549, 3550, 3655, 3654
3461, 3550, 3551, 3656, 3655
3462, 3551, 3552, 3657, 3656
3463, 3552, 3553, 3658, 3657
3464, 3553, 3554, 3659, 3658
3465, 3554, 3555, 3660, 3659
3466, 3555, 3556, 3661, 3660
3467, 3556, 3557, 3662, 3661
3468, 3557, 3558, 3663, 3662
3469, 3558, 3559, 3664, 3663
3470, 3559, 3560, 3665, 3664
3471, 3560, 3561, 3666, 3665
3472, 3561, 3562, 3667, 3666
3473, 3562, 3563, 3668, 3667
3474, 3563, 3564, 3669, 3668
3475, 3564, 3565, 3670, 3669
3476, 3565, 3566, 3671, 3670
3477, 3566, 3567, 3672, 3671
3478, 3567, 3568, 3673, 3672
3479, 3568, 3569, 3674, 3673
3480, 3569, 3570, 3675, 3674
3481, 3570, 3571, 3676, 3675
3482, 3571, 3572, 3677, 3676
3483, 3572, 3573, 3678, 3677
3484, 3573, 3574, 3679, 3678
3485, 3574, 3575, 3680, 3679
3486, 3575, 3576, 3681, 3680
3487, 3576, 3577, 3682, 3681
3488, 3577, 3578, 3683, 3682
3489, 3578, 3579, 3684, 3683
3490, 3579, 3580, 3685, 3684
3491, 3580, 3581, 3686, 3685
3492, 3581, 3582, 3687, 3686
3493, 3582, 3583, 3688, 3687
3494, 3583, 3584, 3689, 3688
3495, 3584, 3585, 3690, 3689
3496, 3585, 3586, 3691, 3690
3497, 3586, 3587, 3692, 3691
3498, 3587, 3588, 3693, 3692
3499, 3588, 3589, 3694, 3693
3500, 3589, 3590, 3695, 3694
3501, 3590, 3591, 3696, 3695
3502, 3591, 3592, 3697, 3696
3503, 3592, 3593, 3698, 3697
3504, 3593, 3594, 3699, 3698
3505, 3594, 3595, 3700, 3699
3506, 3595, 3596, 3701, 3700
3507, 3596, 3597, 3702, 3701
3508, 3597, 3598, 3703, 3702
3509, 3598, 3599, 3704, 3703
3510, 3599, 3600, 3705, 3704
3511, 3600, 3602, 3706, 3705
3512, 3602, 3604, 3707, 3706
3513, 3604, 3606, 3708, 3707
3514, 3606, 3608, 3709, 3708
3515, 3608, 3610, 3710, 3709
3516, 3610, 3711, 3712, 3710
3517, 3711, 3713, 3714, 3712
3518, 3612, 3611, 3715, 3716
3519, 3611, 3613, 3717, 3715
3520, 3613, 3614, 3718, 3717
3521, 3614, 3615, 3719, 3718
3522, 3615, 3616, 3720, 3719
3523, 3616, 3617, 3721, 3720
3524, 3617, 3618, 3722, 3721
3525, 3618, 3619, 3723, 3722
3526, 3619, 3620, 3724, 3723
3527, 3620, 3621, 3725, 3724
3528, 3621, 3622, 3726, 3725
3529, 3622, 3623, 3727, 3726
3530, 3623, 3624, 3728, 3727
3531, 3624, 3625, 3729, 3728
3532, 3625, 3626, 3730, 3729
3533, 3626, 3627, 3731, 3730
3534, 3627, 3628, 3732, 3731
3535, 3628, 3629, 3733, 3732
3536, 3629, 3630, 3734, 3733
3537, 3630, 3631, 3735, 3734
3538, 3631, 3632, 3736, 3735
3539, 3632, 3633, 3737, 3736
3540, 3633, 3634, 3738, 3737
3541, 3634, 3635, 3739, 3738
3542, 3635, 3636, 3740, 3739
3543, 3636, 3637, 3741, 3740
3544, 3637, 3638, 3742, 3741
3545, 3638, 3639, 3743, 3742
3546, 3639, 3640, 3744, 3743
3547, 3640, 3641, 3745, 3744
3548, 3641, 3642, 3746, 3745
3549, 3642, 3643, 3747, 3746
3550, 3643, 3644, 3748, 3747
3551, 3644, 3645, 3749, 3748
3552, 3645, 3646, 3750, 3749
3553, 3646, 3647, 3751, 3750
3554, 3647, 3648, 3752, 3751
3555, 3648, 3649, 3753, 3752
3556, 3649, 3650, 3754, 3753
3557, 3650, 3651, 3755, 3754
3558, 3651, 3652, 3756, 3755
3559, 3652, 3653, 3757, 3756
3560, 3653, 3654, 3758, 3757
3561, 3654, 3655, 3759, 3758
3562, 3655, 3656, 3760, 3759
3563, 3656, 3657, 3761, 3760
3564, 3657, 3658, 3762, 3761
3565, 3658, 3659, 3763, 3762
3566, 3659, 3660, 3764, 3763
3567, 3660, 3661, 3765, 3764
3568, 3661, 3662, 3766, 3765
3569, 3662, 3663, 3767, 3766
3570, 3663, 3664, 3768, 3767
3571, 3664, 3665, 3769, 3768
3572, 3665, 3666, 3770, 3769
3573, 3666, 3667, 3771, 3770
3574, 3667, 3668, 3772, 3771
3575, 3668, 3669, 3773, 3772
3576, 3669, 3670, 3774, 3773
3577, 3670, 3671, 3775, 3774
3578, 3671, 3672, 3776, 3775
3579, 3672, 3673, 3777, 3776
3580, 3673, 3674, 3778, 3777
3581, 3674, 3675, 3779, 3778
3582, 3675, 3676, 3780, 3779
3583, 3676, 3677, 3781, 3780
3584, 3677, 3678, 3782, 3781
3585, 3678, 3679, 3783, 3782
3586, 3679, 3680, 3784, 3783
3587, 3680, 3681, 3785, 3784
3588, 3681, 3682, 3786, 3785
3589, 3682, 3683, 3787, 3786
3590, 3683, 3684, 3788, 3787
3591, 3684, 3685, 3789, 3788
3592, 3685, 3686, 3790, 3789
3593, 3686, 3687, 3791, 3790
3594, 3687, 3688, 3792, 3791
3595, 3688, 3689, 3793, 3792
3596, 3689, 3690, 3794, 3793
3597, 3690, 3691, 3795, 3794
3598, 3691, 3692, 3796, 3795
3599, 3692, 3693, 3797, 3796
3600, 3693, 3694, 3798, 3797
3601, 3694, 3695, 3799, 3798
3602, 3695, 3696, 3800, 3799
3603, 3696, 3697, 3801, 3800
3604, 3697, 3698, 3802, 3801
3605, 3698, 3699, 3803, 3802
3606, 3699, 3700, 3804, 3803
3607, 3700, 3701, 3805, 3804
3608, 3701, 3702, 3806, 3805
3609, 3702, 3703, 3807, 3806
3610, 3703, 3704, 3808, 3807
3611, 3704, 3705, 3809, 3808
3612, 3705, 3706, 3810, 3809
3613, 3706, 3707, 3811, 3810
3614, 3707, 3708, 3812, 3811
3615, 3708, 3709, 3813, 3812
3616, 3709, 3710, 3814, 3813
3617, 3710, 3712, 3815, 3814
3618, 3712, 3714, 3816, 3815
3619, 3714, 3817, 3818, 3816
3620, 3817, 3819, 3820, 3818
3621, 3819, 3821, 3822, 3820
3622, 3716, 3715, 3823, 3824
3623, 3715, 3717, 3825, 3823
3624, 3717, 3718, 3826, 3825
3625, 3718, 3719, 3827, 3826
3626, 3719, 3720, 3828, 3827
3627, 3720, 3721, 3829, 3828
3628, 3721, 3722, 3830, 3829
3629, 3722, 3723, 3831, 3830
3630, 3723, 3724, 3832, 3831
3631, 3724, 3725, 3833, 3832
3632, 3725, 3726, 3834, 3833
3633, 3726, 3727, 3835, 3834
3634, 3727, 3728, 3836, 3835
3635, 3728, 3729, 3837, 3836
3636, 3729, 3730, 3838, 3837
3637, 3730, 3731, 3839, 3838
3638, 3731, 3732, 3840, 3839
3639, 3732, 3733, 3841, 3840
3640, 3733, 3734, 3842, 3841
3641, 3734, 3735, 3843, 3842
3642, 3735, 3736, 3844, 3843
3643, 3736, 3737, 3845, 3844
3644, 3737, 3738, 3846, 3845
3645, 3738, 3739, 3847, 3846
3646, 3739, 3740, 3848, 3847
3647, 3740, 3741, 3849, 3848
3648, 3741, 3742, 3850, 3849
3649, 3742, 3743, 3851, 3850
3650, 3743, 3744, 3852, 3851
3651, 3744, 3745, 3853, 3852
3652, 3745, 3746, 3854, 3853
3653, 3746, 3747, 3855, 3854
3654, 3747, 3748, 3856, 3855
3655, 3748, 3749, 3857, 3856
3656, 3749, 3750, 3858, 3857
3657, 3750, 3751, 3859, 3858
3658, 3751, 3752, 3860, 3859
3659, 3752, 3753, 3861, 3860
3660, 3753, 3754, 3862, 3861
3661, 3754, 3755, 3863, 3862
3662, 3755, 3756, 3864, 3863
3663, 3756, 3757, 3865, 3864
3664, 3757, 3758, 3866, 3865
3665, 3758, 3759, 3867, 3866
3666, 3759, 3760, 3868, 3867
3667, 3760, 3761, 3869, 3868
3668, 3761, 3762, 3870, 3869
3669, 3762, 3763, 3871, 3870
3670, 3763, 3764, 3872, 3871
3671, 3764, 3765, 3873, 3872
3672, 3765, 3766, 3874, 3873
3673, 3766, 3767, 3875, 3874
3674, 3767, 3768, 3876, 3875
3675, 3768, 3769, 3877, 3876
3676, 3769, 3770, 3878, 3877
3677, 3770, 3771, 3879, 3878
3678, 3771, 3772, 3880, 3879
3679, 3772, 3773, 3881, 3880
3680, 3773, 3774, 3882, 3881
3681, 3774, 3775, 3883, 3882
3682, 3775, 3776, 3884, 3883
3683, 3776, 3777, 3885, 3884
3684, 3777, 3778, 3886, 3885
3685, 3778, 3779, 3887, 3886
3686, 3779, 3780, 3888, 3887
3687, 3780, 3781, 3889, 3888
3688, 3781, 3782, 3890, 3889
3689, 3782, 3783, 3891, 3890
3690, 3783, 3784, 3892, 3891
3691, 3784, 3785, 3893, 3892
3692, 3785, 3786, 3894, 3893
3693, 3786, 3787, 3895, 3894
3694, 3787, 3788, 3896, 3895
3695, 3788, 3789, 3897, 3896
3696, 3789, 3790, 3898, 3897
3697, 3790, 3791, 3899, 3898
3698, 3791, 3792, 3900, 3899
3699, 3792, 3793, 3901, 3900
3700, 3793, 3794, 3902, 3901
3701, 3794, 3795, 3903, 3902
3702, 3795, 3796, 3904, 3903
3703, 3796, 3797, 3905, 3904
3704, 3797, 3798, 3906, 3905
3705, 3798, 3799, 3907, 3906
3706, 3799, 3800, 3908, 3907
3707, 3800, 3801, 3909, 3908
3708, 3801, 3802, 3910, 3909
3709, 3802, 3803, 3911, 3910
3710, 3803, 3804, 3912, 3911
3711, 3804, 3805, 3913, 3912
3712, 3805, 3806, 3914, 3913
3713, 3806, 3807, 3915, 3914
3714, 3807, 3808, 3916, 3915
3715, 3808, 3809, 3917, 3916
3716, 3809, 3810, 3918, 3917
3717, 3810, 3811, 3919, 3918
3718, 3811, 3812, 3920, 3919
3719, 3812, 3813, 3921, 3920
3720, 3813, 3814, 3922, 3921
3721, 3814, 3815, 3923, 3922
3722, 3815, 3816, 3924, 3923
3723, 3816, 3818, 3925, 3924
3724, 3818, 3820, 3926, 3925
3725, 3820, 3822, 3927, 3926
3726, 3822, 3928, 3929, 3927
3727, 3928, 3930, 3931, 3929
3728, 3930, 3932, 3933, 3931
3729, 3932, 3934, 3935, 3933
3730, 3824, 3823, 3936, 3937
3731, 3823, 3825, 3938, 3936
3732, 3825, 3826, 3939, 3938
3733, 3826, 3827, 3940, 3939
3734, 3827, 3828, 3941, 3940
3735, 3828, 3829, 3942, 3941
3736, 3829, 3830, 3943, 3942
3737, 3830, 3831, 3944, 3943
3738, 3831, 3832, 3945, 3944
3739, 3832, 3833, 3946, 3945
3740, 3833, 3834, 3947, 3946
3741, 3834, 3835, 3948, 3947
3742, 3835, 3836, 3949, 3948
3743, 3836, 3837, 3950, 3949
3744, 3837, 3838, 3951, 3950
3745, 3838, 3839, 3952, 3951
3746, 3839, 3840, 3953, 3952
3747, 3840, 3841, 3954, 3953
3748, 3841, 3842, 3955, 3954
3749, 3842, 3843, 3956, 3955
3750, 3843, 3844, 3957, 3956
3751, 3844, 3845, 3958, 3957
3752, 3845, 3846, 3959, 3958
3753, 3846, 3847, 3960, 3959
3754, 3847, 3848, 3961, 3960
3755, 3848, 3849, 3962, 3961
3756, 3849, 3850, 3963, 3962
3757, 3850, 3851, 3964, 3963
3758, 3851, 3852, 3965, 3964
3759, 3852, 3853, 3966, 3965
3760, 3853, 3854, 3967, 3966
3761, 3854, 3855, 3968, 3967
3762, 3855, 3856, 3969, 3968
3763, 3856, 3857, 3970, 3969
3764, 3857, 3858, 3971, 3970
3765, 3858, 3859, 3972, 3971
3766, 3859, 3860, 3973, 3972
3767, 3860, 3861, 3974, 3973
3768, 3861, 3862, 3975, 3974
3769, 3862, 3863, 3976, 3975
3770, 3863, 3864, 3977, 3976
3771, 3864, 3865, 3978, 3977
3772, 3865, 3866, 3979, 3978
3773, 3866, 3867, 3980, 3979
3774, 3867, 3868, 3981, 3980
3775, 3868, 3869, 3982, 3981
3776, 3869, 3870, 3983, 3982
3777, 3870, 3871, 3984, 3983
3778, 3871, 3872, 3985, 3984
3779, 3872, 3873, 3986, 3985
3780, 3873, 3874, 3987, 3986
3781, 3874, 3875, 3988, 3987
3782, 3875, 3876, 3989, 3988
3783, 3876, 3877, 3990, 3989
3784, 3877, 3878, 3991, 3990
3785, 3878, 3879, 3992, 3991
3786, 3879, 3880, 3993, 3992
3787, 3880, 3881, 3994, 3993
3788, 3881, 3882, 3995, 3994
3789, 3882, 3883, 3996, 3995
3790, 3883, 3884, 3997, 3996
3791, 3884, 3885, 3998, 3997
3792, 3885, 3886, 3999, 3998
3793, 3886, 3887, 4000, 3999
3794, 3887, 3888, 4001, 4000
3795, 3888, 3889, 4002, 4001
3796, 3889, 3890, 4003, 4002
3797, 3890, 3891, 4004, 4003
3798, 3891, 3892, 4005, 4004
3799, 3892, 3893, 4006, 4005
3800, 3893, 3894, 4007, 4006
3801, 3894, 3895, 4008, 4007
3802, 3895, 3896, 4009, 4008
3803, 3896, 3897, 4010, 4009
3804, 3897, 3898, 4011, 4010
3805, 3898, 3899, 4012, 4011
3806, 3899, 3900, 4013, 4012
3807, 3900, 3901, 4014, 4013
3808, 3901, 3902, 4015, 4014
3809, 3902, 3903, 4016, 4015
3810, 3903, 3904, 4017, 4016
3811, 3904, 3905, 4018, 4017
3812, 3905, 3906, 4019, 4018
3813, 3906, 3907, 4020, 4019
3814, 3907, 3908, 4021, 4020
3815, 3908, 3909, 4022, 4021
3816, 3909, 3910, 4023, 4022
3817, 3910, 3911, 4024, 4023
3818, 3911, 3912, 4025, 4024
3819, 3912, 3913, 4026, 4025
3820, 3913, 3914, 4027, 4026
3821, 3914, 3915, 4028, 4027
3822, 3915, 3916, 4029, 4028
3823, 3916, 3917, 4030, 4029
3824, 3917, 3918, 4031, 4030
3825, 3918, 3919, 4032, 4031
3826, 3919, 3920, 4033, 4032
3827, 3920, 3921, 4034, 4033
3828, 3921, 3922, 4035, 4034
3829, 3922, 3923, 4036, 4035
3830, 3923, 3924, 4037, 4036
3831, 3924, 3925, 4038, 4037
3832, 3925, 3926, 4039, 4038
3833, 3926, 3927, 4040, 4039
3834, 3927, 3929, 4041, 4040
3835, 3929, 3931, 4042, 4041
3836, 3931, 3933, 4043, 4042
3837, 3933, 3935, 4044, 4043
3838, 3935, 4045, 4046, 4044
3839, 4045, 4047, 4048, 4046
3840, 4047, 4049, 4050, 4048
3841, 4049, 4051, 4052, 4050
3842, 4051, 4053, 4054, 4052
3843, 3937, 3936, 4055, 4056
3844, 3936, 3938, 4057, 4055
3845, 3938, 3939, 4058, 4057
3846, 3939, 3940, 4059, 4058
3847, 3940, 3941, 4060, 4059
3848, 3941, 3942, 4061, 4060
3849, 3942, 3943, 4062, 4061
3850, 3943, 3944, 4063, 4062
3851, 3944, 3945, 4064, 4063
3852, 3945, 3946, 4065, 4064
3853, 3946, 3947, 4066, 4065
3854, 3947, 3948, 4067, 4066
3855, 3948, 3949, 4068, 4067
3856, 3949, 3950, 4069, 4068
3857, 3950, 3951, 4070, 4069
3858, 3951, 3952, 4071, 4070
3859, 3952, 3953, 4072, 4071
3860, 3953, 3954, 4073, 4072
3861, 3954, 3955, 4074, 4073
3862, 3955, 3956, 4075, 4074
3863, 3956, 3957, 4076, 4075
3864, 3957, 3958, 4077, 4076
3865, 3958, 3959, 4078, 4077
3866, 3959, 3960, 4079, 4078
3867, 3960, 3961, 4080, 4079
3868, 3961, 3962, 4081, 4080
3869, 3962, 3963, 4082, 4081
3870, 3963, 3964, 4083, 4082
3871, 3964, 3965, 4084, 4083
3872, 3965, 3966, 4085, 4084
3873, 3966, 3967, 4086, 4085
3874, 3967, 3968, 4087, 4086
3875, 3968, 3969, 4088, 4087
3876, 3969, 3970, 4089, 4088
3877, 3970, 3971, 4090, 4089
3878, 3971, 3972, 4091, 4090
3879, 3972, 3973, 4092, 4091
3880, 3973, 3974, 4093, 4092
3881, 3974, 3975, 4094, 4093
3882, 3975, 3976, 4095, 4094
3883, 3976, 3977, 4096, 4095
3884, 3977, 3978, 4097, 4096
3885, 3978, 3979, 4098, 4097
3886, 3979, 3980, 4099, 4098
3887, 3980, 3981, 4100, 4099
3888, 3981, 3982, 4101, 4100
3889, 3982, 3983, 4102, 4101
3890, 3983, 3984, 4103, 4102
3891, 3984, 3985, 4104, 4103
3892, 3985, 3986, 4105, 4104
3893, 3986, 3987, 4106, 4105
3894, 3987, 3988, 4107, 4106
3895, 3988, 3989, 4108, 4107
3896, 3989, 3990, 4109, 4108
3897, 3990, 3991, 4110, 4109
3898, 3991, 3992, 4111, 4110
3899, 3992, 3993, 4112, 4111
3900, 3993, 3994, 4113, 4112
3901, 3994, 3995, 4114, 4113
3902, 3995, 3996, 4115, 4114
3903, 3996, 3997, 4116, 4115
3904, 3997, 3998, 4117, 4116
3905, 3998, 3999, 4118, 4117
3906, 3999, 4000, 4119, 4118
3907, 4000, 4001, 4120, 4119
3908, 4001, 4002, 4121, 4120
3909, 4002, 4003, 4122, 4121
3910, 4003, 4004, 4123, 4122
3911, 4004, 4005, 4124, 4123
3912, 4005, 4006, 4125, 4124
3913, 4006, 4007, 4126, 4125
3914, 4007, 4008, 4127, 4126
3915, 4008, 4009, 4128, 4127
3916, 4009, 4010, 4129, 4128
3917, 4010, 4011, 4130, 4129
3918, 4011, 4012, 4131, 4130
3919, 4012, 4013, 4132, 4131
3920, 4013, 4014, 4133, 4132
3921, 4014, 4015, 4134, 4133
3922, 4015, 4016, 4135, 4134
3923, 4016, 4017, 4136, 4135
3924, 4017, 4018, 4137, 4136
3925, 4018, 4019, 4138, 4137
3926, 4019, 4020, 4139, 4138
3927, 4020, 4021, 4140, 4139
3928, 4021, 4022, 4141, 4140
3929, 4022, 4023, 4142, 4141
3930, 4023, 4024, 4143, 4142
3931, 4024, 4025, 4144, 4143
3932, 4025, 4026, 4145, 4144
3933, 4026, 4027, 4146, 4145
3934, 4027, 4028, 4147, 4146
3935, 4028, 4029, 4148, 4147
3936, 4029, 4030, 4149, 4148
3937, 4030, 4031, 4150, 4149
3938, 4031, 4032, 4151, 4150
3939, 4032, 4033, 4152, 4151
3940, 4033, 4034, 4153, 4152
3941, 4034, 4035, 4154, 4153
3942, 4035, 4036, 4155, 4154
3943, 4036, 4037, 4156, 4155
3944, 4037, 4038, 4157, 4156
3945, 4038, 4039, 4158, 4157
3946, 4039, 4040, 4159, 4158
3947, 4040, 4041, 4160, 4159
3948, 4041, 4042, 4161, 4160
3949, 4042, 4043, 4162, 4161
3950, 4043, 4044, 4163, 4162
3951, 4044, 4046, 4164, 4163
3952, 4046, 4048, 4165, 4164
3953, 4048, 4050, 4166, 4165
3954, 4050, 4052, 4167, 4166
3955, 4052, 4054, 4168, 4167
3956, 4054, 4169, 4170, 4168
3957, 4169, 4171, 4172, 4170
3958, 4171, 4173, 4174, 4172
3959, 4173, 4175, 4176, 4174
3960, 4056, 4055, 4177, 4178
3961, 4055, 4057, 4179, 4177
3962, 4057, 4058, 4180, 4179
3963, 4058, 4059, 4181, 4180
3964, 4059, 4060, 4182, 4181
3965, 4060, 4061, 4183, 4182
3966, 4061, 4062, 4184, 4183
3967, 4062, 4063, 4185, 4184
3968, 4063, 4064, 4186, 4185
3969, 4064, 4065, 4187, 4186
3970, 4065, 4066, 4188, 4187
3971, 4066, 4067, 4189, 4188
3972, 4067, 4068, 4190, 4189
3973, 4068, 4069, 4191, 4190
3974, 4069, 4070, 4192, 4191
3975, 4070, 4071, 4193, 4192
3976, 4071, 4072, 4194, 4193
3977, 4072, 4073, 4195, 4194
3978, 4073, 4074, 4196, 4195
3979, 4074, 4075, 4197, 4196
3980, 4075, 4076, 4198, 4197
3981, 4076, 4077, 4199, 4198
3982, 4077, 4078, 4200, 4199
3983, 4078, 4079, 4201, 4200
3984, 4079, 4080, 4202, 4201
3985, 4080, 4081, 4203, 4202
3986, 4081, 4082, 4204, 4203
3987, 4082, 4083, 4205, 4204
3988, 4083, 4084, 4206, 4205
3989, 4084, 4085, 4207, 4206
3990, 4085, 4086, 4208, 4207
3991, 4086, 4087, 4209, 4208
3992, 4087, 4088, 4210, 4209
3993, 4088, 4089, 4211, 4210
3994, 4089, 4090, 4212, 4211
3995, 4090, 4091, 4213, 4212
3996, 4091, 4092, 4214, 4213
3997, 4092, 4093, 4215, 4214
3998, 4093, 4094, 4216, 4215
3999, 4094, 4095, 4217, 4216
4000, 4095, 4096, 4218, 4217
4001, 4096, 4097, 4219, 4218
4002, 4097, 4098, 4220, 4219
4003, 4098, 4099, 4221, 4220
4004, 4099, 4100, 4222, 4221
4005, 4100, 4101, 4223, 4222
4006, 4101, 4102, 4224, 4223
4007, 4102, 4103, 4225, 4224
4008, 4103, 4104, 4226, 4225
4009, 4104, 4105, 4227, 4226
4010, 4105, 4106, 4228, 4227
4011, 4106, 4107, 4229, 4228
4012, 4107, 4108, 4230, 4229
4013, 4108, 4109, 4231, 4230
4014, 4109, 4110, 4232, 4231
4015, 4110, 4111, 4233, 4232
4016, 4111, 4112, 4234, 4233
4017, 4112, 4113, 4235, 4234
4018, 4113, 4114, 4236, 4235
4019, 4114, 4115, 4237, 4236
4020, 4115, 4116, 4238, 4237
4021, 4116, 4117, 4239, 4238
4022, 4117, 4118, 4240, 4239
4023, 4118, 4119, 4241, 4240
4024, 4119, 4120, 4242, 4241
4025, 4120, 4121, 4243, 4242
4026, 4121, 4122, 4244, 4243
4027, 4122, 4123, 4245, 4244
4028, 4123, 4124, 4246, 4245
4029, 4124, 4125, 4247, 4246
4030, 4125, 4126, 4248, 4247
4031, 4126, 4127, 4249, 4248
4032, 4127, 4128, 4250, 4249
4033, 4128, 4129, 4251, 4250
4034, 4129, 4130, 4252, 4251
4035, 4130, 4131, 4253, 4252
4036, 4131, 4132, 4254, 4253
4037, 4132, 4133, 4255, 4254
4038, 4133, 4134, 4256, 4255
4039, 4134, 4135, 4257, 4256
4040, 4135, 4136, 4258, 4257
4041, 4136, 4137, 4259, 4258
4042, 4137, 4138, 4260, 4259
4043, 4138, 4139, 4261, 4260
4044, 4139, 4140, 4262, 4261
4045, 4140, 4141, 4263, 4262
4046, 4141, 4142, 4264, 4263
4047, 4142, 4143, 4265, 4264
4048, 4143, 4144, 4266, 4265
4049, 4144, 4145, 4267, 4266
4050, 4145, 4146, 4268, 4267
4051, 4146, 4147, 4269, 4268
4052, 4147, 4148, 4270, 4269
4053, 4148, 4149, 4271, 4270
4054, 4149, 4150, 4272, 4271
4055, 4150, 4151, 4273, 4272
4056, 4151, 4152, 4274, 4273
4057, 4152, 4153, 4275, 4274
4058, 4153, 4154, 4276, 4275
4059, 4154, 4155, 4277, 4276
4060, 4155, 4156, 4278, 4277
4061, 4156, 4157, 4279, 4278
4062, 4157, 4158, 4280, 4279
4063, 4158, 4159, 4281, 4280
4064, 4159, 4160, 4282, 4281
4065, 4160, 4161, 4283, 4282
4066, 4161, 4162, 4284, 4283
4067, 4162, 4163, 4285, 4284
4068, 4163, 4164, 4286, 4285
4069, 4164, 4165, 4287, 4286
4070, 4165, 4166, 4288, 4287
4071, 4166, 4167, 4289, 4288
4072, 4167, 4168, 4290, 4289
4073, 4168, 4170, 4291, 4290
4074, 4170, 4172, 4292, 4291
4075, 4172, 4174, 4293, 4292
4076, 4174, 4176, 4294, 4293
4077, 4176, 4295, 4296, 4294
4078, 4295, 4297, 4298, 4296
4079, 4297, 4299, 4300, 4298
4080, 4299, 4301, 4302, 4300
4081, 4301, 4303, 4304, 4302
4082, 4178, 4177, 4305, 4306
4083, 4177, 4179, 4307, 4305
4084, 4179, 4180, 4308, 4307
4085, 4180, 4181, 4309, 4308
4086, 4181, 4182, 4310, 4309
4087, 4182, 4183, 4311, 4310
4088, 4183, 4184, 4312, 4311
4089, 4184, 4185, 4313, 4312
4090, 4185, 4186, 4314, 4313
4091, 4186, 4187, 4315, 4314
4092, 4187, 4188, 4316, 4315
4093, 4188, 4189, 4317, 4316
4094, 4189, 4190, 4318, 4317
4095, 4190, 4191, 4319, 4318
4096, 4191, 4192, 4320, 4319
4097, 4192, 4193, 4321, 4320
4098, 4193, 4194, 4322, 4321
4099, 4194, 4195, 4323, 4322
4100, 4195, 4196, 4324, 4323
4101, 4196, 4197, 4325, 4324
4102, 4197, 4198, 4326, 4325
4103, 4198, 4199, 4327, 4326
4104, 4199, 4200, 4328, 4327
4105, 4200, 4201, 4329, 4328
4106, 4201, 4202, 4330, 4329
4107, 4202, 4203, 4331, 4330
4108, 4203, 4204, 4332, 4331
4109, 4204, 4205, 4333, 4332
4110, 4205, 4206, 4334, 4333
4111, 4206, 4207, 4335, 4334
4112, 4207, 4208, 4336, 4335
4113, 4208, 4209, 4337, 4336
4114, 4209, 4210, 4338, 4337
4115, 4210, 4211, 4339, 4338
4116, 4211, 4212, 4340, 4339
4117, 4212, 4213, 4341, 4340
4118, 4213, 4214, 4342, 4341
4119, 4214, 4215, 4343, 4342
4120, 4215, 4216, 4344, 4343
4121, 4216, 4217, 4345, 4344
4122, 4217, 4218, 4346, 4345
4123, 4218, 4219, 4347, 4346
4124, 4219, 4220, 4348, 4347
4125, 4220, 4221, 4349, 4348
4126, 4221, 4222, 4350, 4349
4127, 4222, 4223, 4351, 4350
4128, 4223, 4224, 4352, 4351
4129, 4224, 4225, 4353, 4352
4130, 4225, 4226, 4354, 4353
4131, 4226, 4227, 4355, 4354
4132, 4227, 4228, 4356, 4355
4133, 4228, 4229, 4357, 4356
4134, 4229, 4230, 4358, 4357
4135, 4230, 4231, 4359, 4358
4136, 4231, 4232, 4360, 4359
4137, 4232, 4233, 4361, 4360
4138, 4233, 4234, 4362, 4361
4139, 4234, 4235, 4363, 4362
4140, 4235, 4236, 4364, 4363
4141, 4236, 4237, 4365, 4364
4142, 4237, 4238, 4366, 4365
4143, 4238, 4239, 4367, 4366
4144, 4239, 4240, 4368, 4367
4145, 4240, 4241, 4369, 4368
4146, 4241, 4242, 4370, 4369
4147, 4242, 4243, 4371, 4370
4148, 4243, 4244, 4372, 4371
4149, 4244, 4245, 4373, 4372
4150, 4245, 4246, 4374, 4373
4151, 4246, 4247, 4375, 4374
4152, 4247, 4248, 4376, 4375
4153, 4248, 4249, 4377, 4376
4154, 4249, 4250, 4378, 4377
4155, 4250, 4251, 4379, 4378
4156, 4251, 4252, 4380, 4379
4157, 4252, 4253, 4381, 4380
4158, 4253, 4254, 4382, 4381
4159, 4254, 4255, 4383, 4382
4160, 4255, 4256, 4384, 4383
4161, 4256, 4257, 4385, 4384
4162, 4257, 4258, 4386, 4385
4163, 4258, 4259, 4387, 4386
4164, 4259, 4260, 4388, 4387
4165, 4260, 4261, 4389, 4388
4166, 4261, 4262, 4390, 4389
4167, 4262, 4263, 4391, 4390
4168, 4263, 4264, 4392, 4391
4169, 4264, 4265, 4393, 4392
4170, 4265, 4266, 4394, 4393
4171, 4266, 4267, 4395, 4394
4172, 4267, 4268, 4396, 4395
4173, 4268, 4269, 4397, 4396
4174, 4269, 4270, 4398, 4397
4175, 4270, 4271, 4399, 4398
4176, 4271, 4272, 4400, 4399
4177, 4272, 4273, 4401, 4400
4178, 4273, 4274, 4402, 4401
4179, 4274, 4275, 4403, 4402
4180, 4275, 4276, 4404, 4403
4181, 4276, 4277, 4405, 4404
4182, 4277, 4278, 4406, 4405
4183, 4278, 4279, 4407, 4406
4184, 4279, 4280, 4408, 4407
4185, 4280, 4281, 4409, 4408
4186, 4281, 4282, 4410, 4409
4187, 4282, 4283, 4411, 4410
4188, 4283, 4284, 4412, 4411
4189, 4284, 4285, 4413, 4412
4190, 4285, 4286, 4414, 4413
4191, 4286, 4287, 4415, 4414
4192, 4287, 4288, 4416, 4415
4193, 4288, 4289, 4417, 4416
4194, 4289, 4290, 4418, 4417
4195, 4290, 4291, 4419, 4418
4196, 4291, 4292, 4420, 4419
4197, 4292, 4293, 4421, 4420
4198, 4293, 4294, 4422, 4421
4199, 4294, 4296, 4423, 4422
4200, 4296, 4298, 4424, 4423
4201, 4298, 4300, 4425, 4424
4202, 4300, 4302, 4426, 4425
4203, 4302, 4304, 4427, 4426
4204, 4304, 4428, 4429, 4427
4205, 4428, 4430, 4431, 4429
4206, 4430, 4432, 4433, 4431
4207, 4432, 4434, 4435, 4433
4208, 4434, 4436, 4437, 4435
4209, 4436, 4438, 4439, 4437
4210, 4306, 4305, 4440, 4441
4211, 4305, 4307, 4442, 4440
4212, 4307, 4308, 4443, 4442
4213, 4308, 4309, 4444, 4443
4214, 4309, 4310, 4445, 4444
4215, 4310, 4311, 4446, 4445
4216, 4311, 4312, 4447, 4446
4217, 4312, 4313, 4448, 4447
4218, 4313, 4314, 4449, 4448
4219, 4314, 4315, 4450, 4449
4220, 4315, 4316, 4451, 4450
4221, 4316, 4317, 4452, 4451
4222, 4317, 4318, 4453, 4452
4223, 4318, 4319, 4454, 4453
4224, 4319, 4320, 4455, 4454
4225, 4320, 4321, 4456, 4455
4226, 4321, 4322, 4457, 4456
4227, 4322, 4323, 4458, 4457
4228, 4323, 4324, 4459, 4458
4229, 4324, 4325, 4460, 4459
4230, 4325, 4326, 4461, 4460
4231, 4326, 4327, 4462, 4461
4232, 4327, 4328, 4463, 4462
4233, 4328, 4329, 4464, 4463
4234, 4329, 4330, 4465, 4464
4235, 4330, 4331, 4466, 4465
4236, 4331, 4332, 4467, 4466
4237, 4332, 4333, 4468, 4467
4238, 4333, 4334, 4469, 4468
4239, 4334, 4335, 4470, 4469
4240, 4335, 4336, 4471, 4470
4241, 4336, 4337, 4472, 4471
4242, 4337, 4338, 4473, 4472
4243, 4338, 4339, 4474, 4473
4244, 4339, 4340, 4475, 4474
4245, 4340, 4341, 4476, 4475
4246, 4341, 4342, 4477, 4476
4247, 4342, 4343, 4478, 4477
4248, 4343, 4344, 4479, 4478
4249, 4344, 4345, 4480, 4479
4250, 4345, 4346, 4481, 4480
4251, 4346, 4347, 4482, 4481
4252, 4347, 4348, 4483, 4482
4253, 4348, 4349, 4484, 4483
4254, 4349, 4350, 4485, 4484
4255, 4350, 4351, 4486, 4485
4256, 4351, 4352, 4487, 4486
4257, 4352, 4353, 4488, 4487
4258, 4353, 4354, 4489, 4488
4259, 4354, 4355, 4490, 4489
4260, 4355, 4356, 4491, 4490
4261, 4356, 4357, 4492, 4491
4262, 4357, 4358, 4493, 4492
4263, 4358, 4359, 4494, 4493
4264, 4359, 4360, 4495, 4494
4265, 4360, 4361, 4496, 4495
4266, 4361, 4362, 4497, 4496
4267, 4362, 4363, 4498, 4497
4268, 4363, 4364, 4499, 4498
4269, 4364, 4365, 4500, 4499
4270, 4365, 4366, 4501, 4500
4271, 4366, 4367, 4502, 4501
4272, 4367, 4368, 4503, 4502
4273, 4368, 4369, 4504, 4503
4274, 4369, 4370, 4505, 4504
4275, 4370, 4371, 4506, 4505
4276, 4371, 4372, 4507, 4506
4277, 4372, 4373, 4508, 4507
4278, 4373, 4374, 4509, 4508
4279, 4374, 4375, 4510, 4509
4280, 4375, 4376, 4511, 4510
4281, 4376, 4377, 4512, 4511
4282, 4377, 4378, 4513, 4512
4283, 4378, 4379, 4514, 4513
4284, 4379, 4380, 4515, 4514
4285, 4380, 4381, 4516, 4515
4286, 4381, 4382, 4517, 4516
4287, 4382, 4383, 4518, 4517
4288, 4383, 4384, 4519, 4518
4289, 4384, 4385, 4520, 4519
4290, 4385, 4386, 4521, 4520
4291, 4386, 4387, 4522, 4521
4292, 4387, 4388, 4523, 4522
4293, 4388, 4389, 4524, 4523
4294, 4389, 4390, 4525, 4524
4295, 4390, 4391, 4526, 4525
4296, 4391, 4392, 4527, 4526
4297, 4392, 4393, 4528, 4527
4298, 4393, 4394, 4529, 4528
4299, 4394, 4395, 4530, 4529
4300, 4395, 4396, 4531, 4530
4301, 4396, 4397, 4532, 4531
4302, 4397, 4398, 4533, 4532
4303, 4398, 4399, 4534, 4533
4304, 4399, 4400, 4535, 4534
4305, 4400, 4401, 4536, 4535
4306, 4401, 4402, 4537, 4536
4307, 4402, 4403, 4538, 4537
4308, 4403, 4404, 4539, 4538
4309, 4404, 4405, 4540, 4539
4310, 4405, 4406, 4541, 4540
4311, 4406, 4407, 4542, 4541
4312, 4407, 4408, 4543, 4542
4313, 4408, 4409, 4544, 4543
4314, 4409, 4410, 4545, 4544
4315, 4410, 4411, 4546, 4545
4316, 4411, 4412, 4547, 4546
4317, 4412, 4413, 4548, 4547
4318, 4413, 4414, 4549, 4548
4319, 4414, 4415, 4550, 4549
4320, 4415, 4416, 4551, 4550
4321, 4416, 4417, 4552, 4551
4322, 4417, 4418, 4553, 4552
4323, 4418, 4419, 4554, 4553
4324, 4419, 4420, 4555, 4554
4325, 4420, 4421, 4556, 4555
4326, 4421, 4422, 4557, 4556
4327, 4422, 4423, 4558, 4557
4328, 4423, 4424, 4559, 4558
4329, 4424, 4425, 4560, 4559
4330, 4425, 4426, 4561, 4560
4331, 4426, 4427, 4562, 4561
4332, 4427, 4429, 4563, 4562
4333, 4429, 4431, 4564, 4563
4334, 4431, 4433, 4565, 4564
4335, 4433, 4435, 4566, 4565
4336, 4435, 4437, 4567, 4566
4337, 4437, 4439, 4568, 4567
4338, 4439, 4569, 4570, 4568
4339, 4569, 4571, 4572, 4570
4340, 4571, 4573, 4574, 4572
4341, 4573, 4575, 4576, 4574
4342, 4575, 4577, 4578, 4576
4343, 4577, 4579, 4580, 4578
4344, 4579, 4581, 4582, 4580
4345, 4581, 4583, 4584, 4582
4346, 4583, 4585, 4586, 4584
4347, 4441, 4440, 4587, 4588
4348, 4440, 4442, 4589, 4587
4349, 4442, 4443, 4590, 4589
4350, 4443, 4444, 4591, 4590
4351, 4444, 4445, 4592, 4591
4352, 4445, 4446, 4593, 4592
4353, 4446, 4447, 4594, 4593
4354, 4447, 4448, 4595, 4594
4355, 4448, 4449, 4596, 4595
4356, 4449, 4450, 4597, 4596
4357, 4450, 4451, 4598, 4597
4358, 4451, 4452, 4599, 4598
4359, 4452, 4453, 4600, 4599
4360, 4453, 4454, 4601, 4600
4361, 4454, 4455, 4602, 4601
4362, 4455, 4456, 4603, 4602
4363, 4456, 4457, 4604, 4603
4364, 4457, 4458, 4605, 4604
4365, 4458, 4459, 4606, 4605
4366, 4459, 4460, 4607, 4606
4367, 4460, 4461, 4608, 4607
4368, 4461, 4462, 4609, 4608
4369, 4462, 4463, 4610, 4609
4370, 4463, 4464, 4611, 4610
4371, 4464, 4465, 4612, 4611
4372, 4465, 4466, 4613, 4612
4373, 4466, 4467, 4614, 4613
4374, 4467, 4468, 4615, 4614
4375, 4468, 4469, 4616, 4615
4376, 4469, 4470, 4617, 4616
4377, 4470, 4471, 4618, 4617
4378, 4471, 4472, 4619, 4618
4379, 4472, 4473, 4620, 4619
4380, 4473, 4474, 4621, 4620
4381, 4474, 4475, 4622, 4621
4382, 4475, 4476, 4623, 4622
4383, 4476, 4477, 4624, 4623
4384, 4477, 4478, 4625, 4624
4385, 4478, 4479, 4626, 4625
4386, 4479, 4480, 4627, 4626
4387, 4480, 4481, 4628, 4627
4388, 4481, 4482, 4629, 4628
4389, 4482, 4483, 4630, 4629
4390, 4483, 4484, 4631, 4630
4391, 4484, 4485, 4632, 4631
4392, 4485, 4486, 4633, 4632
4393, 4486, 4487, 4634, 4633
4394, 4487, 4488, 4635, 4634
4395, 4488, 4489, 4636, 4635
4396, 4489, 4490, 4637, 4636
4397, 4490, 4491, 4638, 4637
4398, 4491, 4492, 4639, 4638
4399, 4492, 4493, 4640, 4639
4400, 4493, 4494, 4641, 4640
4401, 4494, 4495, 4642, 4641
4402, 4495, 4496, 4643, 4642
4403, 4496, 4497, 4644, 4643
4404, 4497, 4498, 4645, 4644
4405, 4498, 4499, 4646, 4645
4406, 4499, 4500, 4647, 4646
4407, 4500, 4501, 4648, 4647
4408, 4501, 4502, 4649, 4648
4409, 4502, 4503, 4650, 4649
4410, 4503, 4504, 4651, 4650
4411, 4504, 4505, 4652, 4651
4412, 4505, 4506, 4653, 4652
4413, 4506, 4507, 4654, 4653
4414, 4507, 4508, 4655, 4654
4415, 4508, 4509, 4656, 4655
4416, 4509, 4510, 4657, 4656
4417, 4510, 4511, 4658, 4657
4418, 4511, 4512, 4659, 4658
4419, 4512, 4513, 4660, 4659
4420, 4513, 4514, 4661, 4660
4421, 4514, 4515, 4662, 4661
4422, 4515, 4516, 4663, 4662
4423, 4516, 4517, 4664, 4663
4424, 4517, 4518, 4665, 4664
4425, 4518, 4519, 4666, 4665
4426, 4519, 4520, 4667, 4666
4427, 4520, 4521, 4668, 4667
4428, 4521, 4522, 4669, 4668
4429, 4522, 4523, 4670, 4669
4430, 4523, 4524, 4671, 4670
4431, 4524, 4525, 4672, 4671
4432, 4525, 4526, 4673, 4672
4433, 4526, 4527, 4674, 4673
4434, 4527, 4528, 4675, 4674
4435, 4528, 4529, 4676, 4675
4436, 4529, 4530, 4677, 4676
4437, 4530, 4531, 4678, 4677
4438, 4531, 4532, 4679, 4678
4439, 4532, 4533, 4680, 4679
4440, 4533, 4534, 4681, 4680
4441, 4534, 4535, 4682, 4681
4442, 4535, 4536, 4683, 4682
4443, 4536, 4537, 4684, 4683
4444, 4537, 4538, 4685, 4684
4445, 4538, 4539, 4686, 4685
4446, 4539, 4540, 4687, 4686
4447, 4540, 4541, 4688, 4687
4448, 4541, 4542, 4689, 4688
4449, 4542, 4543, 4690, 4689
4450, 4543, 4544, 4691, 4690
4451, 4544, 4545, 4692, 4691
4452, 4545, 4546, 4693, 4692
4453, 4546, 4547, 4694, 4693
4454, 4547, 4548, 4695, 4694
4455, 4548, 4549, 4696, 4695
4456, 4549, 4550, 4697, 4696
4457, 4550, 4551, 4698, 4697
4458, 4551, 4552, 4699, 4698
4459, 4552, 4553, 4700, 4699
4460, 4553, 4554, 4701, 4700
4461, 4554, 4555, 4702, 4701
4462, 4555, 4556, 4703, 4702
4463, 4556, 4557, 4704, 4703
4464, 4557, 4558, 4705, 4704
4465, 4558, 4559, 4706, 4705
4466, 4559, 4560, 4707, 4706
4467, 4560, 4561, 4708, 4707
4468, 4561, 4562, 4709, 4708
4469, 4562, 4563, 4710, 4709
4470, 4563, 4564, 4711, 4710
4471, 4564, 4565, 4712, 4711
4472, 4565, 4566, 4713, 4712
4473, 4566, 4567, 4714, 4713
4474, 4567, 4568, 4715, 4714
4475, 4568, 4570, 4716, 4715
4476, 4570, 4572, 4717, 4716
4477, 4572, 4574, 4718, 4717
4478, 4574, 4576, 4719, 4718
4479, 4576, 4578, 4720, 4719
4480, 4578, 4580, 4721, 4720
4481, 4580, 4582, 4722, 4721
4482, 4582, 4584, 4723, 4722
4483, 4584, 4586, 4724, 4723
4484, 4586, 4725, 4726, 4724
4485, 4725, 4727, 4728, 4726
4486, 4727, 4729, 4730, 4728
4487, 4729, 4731, 4732, 4730
4488, 4731, 4733, 4734, 4732
4489, 4733, 4735, 4736, 4734
4490, 4588, 4587, 4737, 4738
4491, 4587, 4589, 4739, 4737
4492, 4589, 4590, 4740, 4739
4493, 4590, 4591, 4741, 4740
4494, 4591, 4592, 4742, 4741
4495, 4592, 4593, 4743, 4742
4496, 4593, 4594, 4744, 4743
4497, 4594, 4595, 4745, 4744
4498, 4595, 4596, 4746, 4745
4499, 4596, 4597, 4747, 4746
4500, 4597, 4598, 4748, 4747
4501, 4598, 4599, 4749, 4748
4502, 4599, 4600, 4750, 4749
4503, 4600, 4601, 4751, 4750
4504, 4601, 4602, 4752, 4751
4505, 4602, 4603, 4753, 4752
4506, 4603, 4604, 4754, 4753
4507, 4604, 4605, 4755, 4754
4508, 4605, 4606, 4756, 4755
4509, 4606, 4607, 4757, 4756
4510, 4607, 4608, 4758, 4757
4511, 4608, 4609, 4759, 4758
4512, 4609, 4610, 4760, 4759
4513, 4610, 4611, 4761, 4760
4514, 4611, 4612, 4762, 4761
4515, 4612, 4613, 4763, 4762
4516, 4613, 4614, 4764, 4763
4517, 4614, 4615, 4765, 4764
4518, 4615, 4616, 4766, 4765
4519, 4616, 4617, 4767, 4766
4520, 4617, 4618, 4768, 4767
4521, 4618, 4619, 4769, 4768
4522, 4619, 4620, 4770, 4769
4523, 4620, 4621, 4771, 4770
4524, 4621, 4622, 4772, 4771
4525, 4622, 4623, 4773, 4772
4526, 4623, 4624, 4774, 4773
4527, 4624, 4625, 4775, 4774
4528, 4625, 4626, 4776, 4775
4529, 4626, 4627, 4777, 4776
4530, 4627, 4628, 4778, 4777
4531, 4628, 4629, 4779, 4778
4532, 4629, 4630, 4780, 4779
4533, 4630, 4631, 4781, 4780
4534, 4631, 4632, 4782, 4781
4535, 4632, 4633, 4783, 4782
4536, 4633, 4634, 4784, 4783
4537, 4634, 4635, 4785, 4784
4538, 4635, 4636, 4786, 4785
4539, 4636, 4637, 4787, 4786
4540, 4637, 4638, 4788, 4787
4541, 4638, 4639, 4789, 4788
4542, 4639, 4640, 4790, 4789
4543, 4640, 4641, 4791, 4790
4544, 4641, 4642, 4792, 4791
4545, 4642, 4643, 4793, 4792
4546, 4643, 4644, 4794, 4793
4547, 4644, 4645, 4795, 4794
4548, 4645, 4646, 4796, 4795
4549, 4646, 4647, 4797, 4796
4550, 4647, 4648, 4798, 4797
4551, 4648, 4649, 4799, 4798
4552, 4649, 4650, 4800, 4799
4553, 4650, 4651, 4801, 4800
4554, 4651, 4652, 4802, 4801
4555, 4652, 4653, 4803, 4802
4556, 4653, 4654, 4804, 4803
4557, 4654, 4655, 4805, 4804
4558, 4655, 4656, 4806, 4805
4559, 4656, 4657, 4807, 4806
4560, 4657, 4658, 4808, 4807
4561, 4658, 4659, 4809, 4808
4562, 4659, 4660, 4810, 4809
4563, 4660, 4661, 4811, 4810
4564, 4661, 4662, 4812, 4811
4565, 4662, 4663, 4813, 4812
4566, 4663, 4664, 4814, 4813
4567, 4664, 4665, 4815, 4814
4568, 4665, 4666, 4816, 4815
4569, 4666, 4667, 4817, 4816
4570, 4667, 4668, 4818, 4817
4571, 4668, 4669, 4819, 4818
4572, 4669, 4670, 4820, 4819
4573, 4670, 4671, 4821, 4820
4574, 4671, 4672, 4822, 4821
4575, 4672, 4673, 4823, 4822
4576, 4673, 4674, 4824, 4823
4577, 4674, 4675, 4825, 4824
4578, 4675, 4676, 4826, 4825
4579, 4676, 4677, 4827, 4826
4580, 4677, 4678, 4828, 4827
4581, 4678, 4679, 4829, 4828
4582, 4679, 4680, 4830, 4829
4583, 4680, 4681, 4831, 4830
4584, 4681, 4682, 4832, 4831
4585, 4682, 4683, 4833, 4832
4586, 4683, 4684, 4834, 4833
4587, 4684, 4685, 4835, 4834
4588, 4685, 4686, 4836, 4835
4589, 4686, 4687, 4837, 4836
4590, 4687, 4688, 4838, 4837
4591, 4688, 4689, 4839, 4838
4592, 4689, 4690, 4840, 4839
4593, 4690, 4691, 4841, 4840
4594, 4691, 4692, 4842, 4841
4595, 4692, 4693, 4843, 4842
4596, 4693, 4694, 4844, 4843
4597, 4694, 4695, 4845, 4844
4598, 4695, 4696, 4846, 4845
4599, 4696, 4697, 4847, 4846
4600, 4697, 4698, 4848, 4847
4601, 4698, 4699, 4849, 4848
4602, 4699, 4700, 4850, 4849
4603, 4700, 4701, 4851, 4850
4604, 4701, 4702, 4852, 4851
4605, 4702, 4703, 4853, 4852
4606, 4703, 4704, 4854, 4853
4607, 4704, 4705, 4855, 4854
4608, 4705, 4706, 4856, 4855
4609, 4706, 4707, 4857, 4856
4610, 4707, 4708, 4858, 4857
4611, 4708, 4709, 4859, 4858
4612, 4709, 4710, 4860, 4859
4613, 4710, 4711, 4861, 4860
4614, 4711, 4712, 4862, 4861
4615, 4712, 4713, 4863, 4862
4616, 4713, 4714, 4864, 4863
4617, 4714, 4715, 4865, 4864
4618, 4715, 4716, 4866, 4865
4619, 4716, 4717, 4867, 4866
4620, 4717, 4718, 4868, 4867
4621, 4718, 4719, 4869, 4868
4622, 4719, 4720, 4870, 4869
4623, 4720, 4721, 4871, 4870
4624, 4721, 4722, 4872, 4871
4625, 4722, 4723, 4873, 4872
4626, 4723, 4724, 4874, 4873
4627, 4724, 4726, 4875, 4874
4628, 4726, 4728, 4876, 4875
4629, 4728, 4730, 4877, 4876
4630, 4730, 4732, 4878, 4877
4631, 4732, 4734, 4879, 4878
4632, 4734, 4736, 4880, 4879
4633, 4736, 4881, 4882, 4880
4634, 4881, 4883, 4884, 4882
4635, 4738, 4737, 4885, 4886
4636, 4737, 4739, 4887, 4885
4637, 4739, 4740, 4888, 4887
4638, 4740, 4741, 4889, 4888
4639, 4741, 4742, 4890, 4889
4640, 4742, 4743, 4891, 4890
4641, 4743, 4744, 4892, 4891
4642, 4744, 4745, 4893, 4892
4643, 4745, 4746, 4894, 4893
4644, 4746, 4747, 4895, 4894
4645, 4747, 4748, 4896, 4895
4646, 4748, 4749, 4897, 4896
4647, 4749, 4750, 4898, 4897
4648, 4750, 4751, 4899, 4898
4649, 4751, 4752, 4900, 4899
4650, 4752, 4753, 4901, 4900
4651, 4753, 4754, 4902, 4901
4652, 4754, 4755, 4903, 4902
4653, 4755, 4756, 4904, 4903
4654, 4756, 4757, 4905, 4904
4655, 4757, 4758, 4906, 4905
4656, 4758, 4759, 4907, 4906
4657, 4759, 4760, 4908, 4907
4658, 4760, 4761, 4909, 4908
4659, 4761, 4762, 4910, 4909
4660, 4762, 4763, 4911, 4910
4661, 4763, 4764, 4912, 4911
4662, 4764, 4765, 4913, 4912
4663, 4765, 4766, 4914, 4913
4664, 4766, 4767, 4915, 4914
4665, 4767, 4768, 4916, 4915
4666, 4768, 4769, 4917, 4916
4667, 4769, 4770, 4918, 4917
4668, 4770, 4771, 4919, 4918
4669, 4771, 4772, 4920, 4919
4670, 4772, 4773, 4921, 4920
4671, 4773, 4774, 4922, 4921
4672, 4774, 4775, 4923, 4922
4673, 4775, 4776, 4924, 4923
4674, 4776, 4777, 4925, 4924
4675, 4777, 4778, 4926, 4925
4676, 4778, 4779, 4927, 4926
4677, 4779, 4780, 4928, 4927
4678, 4780, 4781, 4929, 4928
4679, 4781, 4782, 4930, 4929
4680, 4782, 4783, 4931, 4930
4681, 4783, 4784, 4932, 4931
4682, 4784, 4785, 4933, 4932
4683, 4785, 4786, 4934, 4933
4684, 4786, 4787, 4935, 4934
4685, 4787, 4788, 4936, 4935
4686, 4788, 4789, 4937, 4936
4687, 4789, 4790, 4938, 4937
4688, 4790, 4791, 4939, 4938
4689, 4791, 4792, 4940, 4939
4690, 4792, 4793, 4941, 4940
4691, 4793, 4794, 4942, 4941
4692, 4794, 4795, 4943, 4942
4693, 4795, 4796, 4944, 4943
4694, 4796, 4797, 4945, 4944
4695, 4797, 4798, 4946, 4945
4696, 4798, 4799, 4947, 4946
4697, 4799, 4800, 4948, 4947
4698, 4800, 4801, 4949, 4948
4699, 4801, 4802, 4950, 4949
4700, 4802, 4803, 4951, 4950
4701, 4803, 4804, 4952, 4951
4702, 4804, 4805, 4953, 4952
4703, 4805, 4806, 4954, 4953
4704, 4806, 4807, 4955, 4954
4705, 4807, 4808, 4956, 4955
4706, 4808, 4809, 4957, 4956
4707, 4809, 4810, 4958, 4957
4708, 4810, 4811, 4959, 4958
4709, 4811, 4812, 4960, 4959
4710, 4812, 4813, 4961, 4960
4711, 4813, 4814, 4962, 4961
4712, 4814, 4815, 4963, 4962
4713, 4815, 4816, 4964, 4963
4714, 4816, 4817, 4965, 4964
4715, 4817, 4818, 4966, 4965
4716, 4818, 4819, 4967, 4966
4717, 4819, 4820, 4968, 4967
4718, 4820, 4821, 4969, 4968
4719, 4821, 4822, 4970, 4969
4720, 4822, 4823, 4971, 4970
4721, 4823, 4824, 4972, 4971
4722, 4824, 4825, 4973, 4972
4723, 4825, 4826, 4974, 4973
4724, 4826, 4827, 4975, 4974
4725, 4827, 4828, 4976, 4975
4726, 4828, 4829, 4977, 4976
4727, 4829, 4830, 4978, 4977
4728, 4830, 4831, 4979, 4978
4729, 4831, 4832, 4980, 4979
4730, 4832, 4833, 4981, 4980
4731, 4833, 4834, 4982, 4981
4732, 4834, 4835, 4983, 4982
4733, 4835, 4836, 4984, 4983
4734, 4836, 4837, 4985, 4984
4735, 4837, 4838, 4986, 4985
4736, 4838, 4839, 4987, 4986
4737, 4839, 4840, 4988, 4987
4738, 4840, 4841, 4989, 4988
4739, 4841, 4842, 4990, 4989
4740, 4842, 4843, 4991, 4990
4741, 4843, 4844, 4992, 4991
4742, 4844, 4845, 4993, 4992
4743, 4845, 4846, 4994, 4993
4744, 4846, 4847, 4995, 4994
4745, 4847, 4848, 4996, 4995
4746, 4848, 4849, 4997, 4996
4747, 4849, 4850, 4998, 4997
4748, 4850, 4851, 4999, 4998
4749, 4851, 4852, 5000, 4999
4750, 4852, 4853, 5001, 5000
4751, 4853, 4854, 5002, 5001
4752, 4854, 4855, 5003, 5002
4753, 4855, 4856, 5004, 5003
4754, 4856, 4857, 5005, 5004
4755, 4857, 4858, 5006, 5005
4756, 4858, 4859, 5007, 5006
4757, 4859, 4860, 5008, 5007
4758, 4860, 4861, 5009, 5008
4759, 4861, 4862, 5010, 5009
4760, 4862, 4863, 5011, 5010
4761, 4863, 4864, 5012, 5011
4762, 4864, 4865, 5013, 5012
4763, 4865, 4866, 5014, 5013
4764, 4866, 4867, 5015, 5014
4765, 4867, 4868, 5016, 5015
4766, 4868, 4869, 5017, 5016
4767, 4869, 4870, 5018, 5017
4768, 4870, 4871, 5019, 5018
4769, 4871, 4872, 5020, 5019
4770, 4872, 4873, 5021, 5020
4771, 4873, 4874, 5022, 5021
4772, 4874, 4875, 5023, 5022
4773, 4875, 4876, 5024, 5023
4774, 4876, 4877, 5025, 5024
4775, 4877, 4878, 5026, 5025
4776, 4878, 4879, 5027, 5026
4777, 4879, 4880, 5028, 5027
4778, 4880, 4882, 5029, 5028
4779, 4882, 4884, 5030, 5029
4780, 4886, 4885, 5031, 5032
4781, 4885, 4887, 5033, 5031
4782, 4887, 4888, 5034, 5033
4783, 4888, 4889, 5035, 5034
4784, 4889, 4890, 5036, 5035
4785, 4890, 4891, 5037, 5036
4786, 4891, 4892, 5038, 5037
4787, 4892, 4893, 5039, 5038
4788, 4893, 4894, 5040, 5039
4789, 4894, 4895, 5041, 5040
4790, 4895, 4896, 5042, 5041
4791, 4896, 4897, 5043, 5042
4792, 4897, 4898, 5044, 5043
4793, 4898, 4899, 5045, 5044
4794, 4899, 4900, 5046, 5045
4795, 4900, 4901, 5047, 5046
4796, 4901, 4902, 5048, 5047
4797, 4902, 4903, 5049, 5048
4798, 4903, 4904, 5050, 5049
4799, 4904, 4905, 5051, 5050
4800, 4905, 4906, 5052, 5051
4801, 4906, 4907, 5053, 5052
4802, 4907, 4908, 5054, 5053
4803, 4908, 4909, 5055, 5054
4804, 4909, 4910, 5056, 5055
4805, 4910, 4911, 5057, 5056
4806, 4911, 4912, 5058, 5057
4807, 4912, 4913, 5059, 5058
4808, 4913, 4914, 5060, 5059
4809, 4914, 4915, 5061, 5060
4810, 4915, 4916, 5062, 5061
4811, 4916, 4917, 5063, 5062
4812, 4917, 4918, 5064, 5063
4813, 4918, 4919, 5065, 5064
4814, 4919, 4920, 5066, 5065
4815, 4920, 4921, 5067, 5066
4816, 4921, 4922, 5068, 5067
4817, 4922, 4923, 5069, 5068
4818, 4923, 4924, 5070, 5069
4819, 4924, 4925, 5071, 5070
4820, 4925, 4926, 5072, 5071
4821, 4926, 4927, 5073, 5072
4822, 4927, 4928, 5074, 5073
4823, 4928, 4929, 5075, 5074
4824, 4929, 4930, 5076, 5075
4825, 4930, 4931, 5077, 5076
4826, 4931, 4932, 5078, 5077
4827, 4932, 4933, 5079, 5078
4828, 4933, 4934, 5080, 5079
4829, 4934, 4935, 5081, 5080
4830, 4935, 4936, 5082, 5081
4831, 4936, 4937, 5083, 5082
4832, 4937, 4938, 5084, 5083
4833, 4938, 4939, 5085, 5084
4834, 4939, 4940, 5086, 5085
4835, 4940, 4941, 5087, 5086
4836, 4941, 4942, 5088, 5087
4837, 4942, 4943, 5089, 5088
4838, 4943, 4944, 5090, 5089
4839, 4944, 4945, 5091, 5090
4840, 4945, 4946, 5092, 5091
4841, 4946, 4947, 5093, 5092
4842, 4947, 4948, 5094, 5093
4843, 4948, 4949, 5095, 5094
4844, 4949, 4950, 5096, 5095
4845, 4950, 4951, 5097, 5096
4846, 4951, 4952, 5098, 5097
4847, 4952, 4953, 5099, 5098
4848, 4953, 4954, 5100, 5099
4849, 4954, 4955, 5101, 5100
4850, 4955, 4956, 5102, 5101
4851, 4956, 4957, 5103, 5102
4852, 4957, 4958, 5104, 5103
4853, 4958, 4959, 5105, 5104
4854, 4959, 4960, 5106, 5105
4855, 4960, 4961, 5107, 5106
4856, 4961, 4962, 5108, 5107
4857, 4962, 4963, 5109, 5108
4858, 4963, 4964, 5110, 5109
4859, 4964, 4965, 5111, 5110
4860, 4965, 4966, 5112, 5111
4861, 4966, 4967, 5113, 5112
4862, 4967, 4968, 5114, 5113
4863, 4968, 4969, 5115, 5114
4864, 4969, 4970, 5116, 5115
4865, 4970, 4971, 5117, 5116
4866, 4971, 4972, 5118, 5117
4867, 4972, 4973, 5119, 5118
4868, 4973, 4974, 5120, 5119
4869, 4974, 4975, 5121, 5120
4870, 4975, 4976, 5122, 5121
4871, 4976, 4977, 5123, 5122
4872, 4977, 4978, 5124, 5123
4873, 4978, 4979, 5125, 5124
4874, 4979, 4980, 5126, 5125
4875, 4980, 4981, 5127, 5126
4876, 4981, 4982, 5128, 5127
4877, 4982, 4983, 5129, 5128
4878, 4983, 4984, 5130, 5129
4879, 4984, 4985, 5131, 5130
4880, 4985, 4986, 5132, 5131
4881, 4986, 4987, 5133, 5132
4882, 4987, 4988, 5134, 5133
4883, 4988, 4989, 5135, 5134
4884, 4989, 4990, 5136, 5135
4885, 4990, 4991, 5137, 5136
4886, 4991, 4992, 5138, 5137
4887, 4992, 4993, 5139, 5138
4888, 4993, 4994, 5140, 5139
4889, 4994, 4995, 5141, 5140
4890, 4995, 4996, 5142, 5141
4891, 4996, 4997, 5143, 5142
4892, 4997, 4998, 5144, 5143
4893, 4998, 4999, 5145, 5144
4894, 4999, 5000, 5146, 5145
4895, 5000, 5001, 5147, 5146
4896, 5001, 5002, 5148, 5147
4897, 5002, 5003, 5149, 5148
4898, 5003, 5004, 5150, 5149
4899, 5004, 5005, 5151, 5150
4900, 5005, 5006, 5152, 5151
4901, 5006, 5007, 5153, 5152
4902, 5007, 5008, 5154, 5153
4903, 5008, 5009, 5155, 5154
4904, 5009, 5010, 5156, 5155
4905, 5010, 5011, 5157, 5156
4906, 5011, 5012, 5158, 5157
4907, 5012, 5013, 5159, 5158
4908, 5013, 5014, 5160, 5159
4909, 5014, 5015, 5161, 5160
4910, 5015, 5016, 5162, 5161
4911, 5016, 5017, 5163, 5162
4912, 5017, 5018, 5164, 5163
4913, 5018, 5019, 5165, 5164
4914, 5019, 5020, 5166, 5165
4915, 5020, 5021, 5167, 5166
4916, 5021, 5022, 5168, 5167
4917, 5022, 5023, 5169, 5168
4918, 5023, 5024, 5170, 5169
4919, 5024, 5025, 5171, 5170
4920, 5025, 5026, 5172, 5171
4921, 5026, 5027, 5173, 5172
4922, 5027, 5028, 5174, 5173
4923, 5028, 5029, 5175, 5174
4924, 5029, 5030, 5176, 5175
4925, 5032, 5031, 5177, 5178
4926, 5031, 5033, 5179, 5177
4927, 5033, 5034, 5180, 5179
4928, 5034, 5035, 5181, 5180
4929, 5035, 5036, 5182, 5181
4930, 5036, 5037, 5183, 5182
4931, 5037, 5038, 5184, 5183
4932, 5038, 5039, 5185, 5184
4933, 5039, 5040, 5186, 5185
4934, 5040, 5041, 5187, 5186
4935, 5041, 5042, 5188, 5187
4936, 5042, 5043, 5189, 5188
4937, 5043, 5044, 5190, 5189
4938, 5044, 5045, 5191, 5190
4939, 5045, 5046, 5192, 5191
4940, 5046, 5047, 5193, 5192
4941, 5047, 5048, 5194, 5193
4942, 5048, 5049, 5195, 5194
4943, 5049, 5050, 5196, 5195
4944, 5050, 5051, 5197, 5196
4945, 5051, 5052, 5198, 5197
4946, 5052, 5053, 5199, 5198
4947, 5053, 5054, 5200, 5199
4948, 5054, 5055, 5201, 5200
4949, 5055, 5056, 5202, 5201
4950, 5056, 5057, 5203, 5202
4951, 5057, 5058, 5204, 5203
4952, 5058, 5059, 5205, 5204
4953, 5059, 5060, 5206, 5205
4954, 5060, 5061, 5207, 5206
4955, 5061, 5062, 5208, 5207
4956, 5062, 5063, 5209, 5208
4957, 5063, 5064, 5210, 5209
4958, 5064, 5065, 5211, 5210
4959, 5065, 5066, 5212, 5211
4960, 5066, 5067, 5213, 5212
4961, 5067, 5068, 5214, 5213
4962, 5068, 5069, 5215, 5214
4963, 5069, 5070, 5216, 5215
4964, 5070, 5071, 5217, 5216
4965, 5071, 5072, 5218, 5217
4966, 5072, 5073, 5219, 5218
4967, 5073, 5074, 5220, 5219
4968, 5074, 5075, 5221, 5220
4969, 5075, 5076, 5222, 5221
4970, 5076, 5077, 5223, 5222
4971, 5077, 5078, 5224, 5223
4972, 5078, 5079, 5225, 5224
4973, 5079, 5080, 5226, 5225
4974, 5080, 5081, 5227, 5226
4975, 5081, 5082, 5228, 5227
4976, 5082, 5083, 5229, 5228
4977, 5083, 5084, 5230, 5229
4978, 5084, 5085, 5231, 5230
4979, 5085, 5086, 5232, 5231
4980, 5086, 5087, 5233, 5232
4981, 5087, 5088, 5234, 5233
4982, 5088, 5089, 5235, 5234
4983, 5089, 5090, 5236, 5235
4984, 5090, 5091, 5237, 5236
4985, 5091, 5092, 5238, 5237
4986, 5092, 5093, 5239, 5238
4987, 5093, 5094, 5240, 5239
4988, 5094, 5095, 5241, 5240
4989, 5095, 5096, 5242, 5241
4990, 5096, 5097, 5243, 5242
4991, 5097, 5098, 5244, 5243
4992, 5098, 5099, 5245, 5244
4993, 5099, 5100, 5246, 5245
4994, 5100, 5101, 5247, 5246
4995, 5101, 5102, 5248, 5247
4996, 5102, 5103, 5249, 5248
4997, 5103, 5104, 5250, 5249
4998, 5104, 5105, 5251, 5250
4999, 5105, 5106, 5252, 5251
5000, 5106, 5107, 5253, 5252
5001, 5107, 5108, 5254, 5253
5002, 5108, 5109, 5255, 5254
5003, 5109, 5110, 5256, 5255
5004, 5110, 5111, 5257, 5256
5005, 5111, 5112, 5258, 5257
5006, 5112, 5113, 5259, 5258
5007, 5113, 5114, 5260, 5259
5008, 5114, 5115, 5261, 5260
5009, 5115, 5116, 5262, 5261
5010, 5116, 5117, 5263, 5262
5011, 5117, 5118, 5264, 5263
5012, 5118, 5119, 5265, 5264
5013, 5119, 5120, 5266, 5265
5014, 5120, 5121, 5267, 5266
5015, 5121, 5122, 5268, 5267
5016, 5122, 5123, 5269, 5268
5017, 5123, 5124, 5270, 5269
5018, 5124, 5125, 5271, 5270
5019, 5125, 5126, 5272, 5271
5020, 5126, 5127, 5273, 5272
5021, 5127, 5128, 5274, 5273
5022, 5128, 5129, 5275, 5274
5023, 5129, 5130, 5276, 5275
5024, 5130, 5131, 5277, 5276
5025, 5131, 5132, 5278, 5277
5026, 5132, 5133, 5279, 5278
5027, 5133, 5134, 5280, 5279
5028, 5134, 5135, 5281, 5280
5029, 5135, 5136, 5282, 5281
5030, 5136, 5137, 5283, 5282
5031, 5137, 5138, 5284, 5283
5032, 5138, 5139, 5285, 5284
5033, 5139, 5140, 5286, 5285
5034, 5140, 5141, 5287, 5286
5035, 5141, 5142, 5288, 5287
5036, 5142, 5143, 5289, 5288
5037, 5143, 5144, 5290, 5289
5038, 5144, 5145, 5291, 5290
5039, 5145, 5146, 5292, 5291
5040, 5146, 5147, 5293, 5292
5041, 5147, 5148, 5294, 5293
5042, 5148, 5149, 5295, 5294
5043, 5149, 5150, 5296, 5295
5044, 5150, 5151, 5297, 5296
5045, 5151, 5152, 5298, 5297
5046, 5152, 5153, 5299, 5298
5047, 5153, 5154, 5300, 5299
5048, 5154, 5155, 5301, 5300
5049, 5155, 5156, 5302, 5301
5050, 5156, 5157, 5303, 5302
5051, 5157, 5158, 5304, 5303
5052, 5158, 5159, 5305, 5304
5053, 5159, 5160, 5306, 5305
5054, 5160, 5161, 5307, 5306
5055, 5161, 5162, 5308, 5307
5056, 5162, 5163, 5309, 5308
5057, 5163, 5164, 5310, 5309
5058, 5164, 5165, 5311, 5310
5059, 5165, 5166, 5312, 5311
5060, 5166, 5167, 5313, 5312
5061, 5167, 5168, 5314, 5313
5062, 5168, 5169, 5315, 5314
5063, 5169, 5170, 5316, 5315
5064, 5170, 5171, 5317, 5316
5065, 5171, 5172, 5318, 5317
5066, 5172, 5173, 5319, 5318
5067, 5173, 5174, 5320, 5319
5068, 5174, 5175, 5321, 5320
5069, 5175, 5176, 5322, 5321
5070, 5178, 5177, 5323, 5324
5071, 5177, 5179, 5325, 5323
5072, 5179, 5180, 5326, 5325
5073, 5180, 5181, 5327, 5326
5074, 5181, 5182, 5328, 5327
5075, 5182, 5183, 5329, 5328
5076, 5183, 5184, 5330, 5329
5077, 5184, 5185, 5331, 5330
5078, 5185, 5186, 5332, 5331
5079, 5186, 5187, 5333, 5332
5080, 5187, 5188, 5334, 5333
5081, 5188, 5189, 5335, 5334
5082, 5189, 5190, 5336, 5335
5083, 5190, 5191, 5337, 5336
5084, 5191, 5192, 5338, 5337
5085, 5192, 5193, 5339, 5338
5086, 5193, 5194, 5340, 5339
5087, 5194, 5195, 5341, 5340
5088, 5195, 5196, 5342, 5341
5089, 5196, 5197, 5343, 5342
5090, 5197, 5198, 5344, 5343
5091, 5198, 5199, 5345, 5344
5092, 5199, 5200, 5346, 5345
5093, 5200, 5201, 5347, 5346
5094, 5201, 5202, 5348, 5347
5095, 5202, 5203, 5349, 5348
5096, 5203, 5204, 5350, 5349
5097, 5204, 5205, 5351, 5350
5098, 5205, 5206, 5352, 5351
5099, 5206, 5207, 5353, 5352
5100, 5207, 5208, 5354, 5353
5101, 5208, 5209, 5355, 5354
5102, 5209, 5210, 5356, 5355
5103, 5210, 5211, 5357, 5356
5104, 5211, 5212, 5358, 5357
5105, 5212, 5213, 5359, 5358
5106, 5213, 5214, 5360, 5359
5107, 5214, 5215, 5361, 5360
5108, 5215, 5216, 5362, 5361
5109, 5216, 5217, 5363, 5362
5110, 5217, 5218, 5364, 5363
5111, 5218, 5219, 5365, 5364
5112, 5219, 5220, 5366, 5365
5113, 5220, 5221, 5367, 5366
5114, 5221, 5222, 5368, 5367
5115, 5222, 5223, 5369, 5368
5116, 5223, 5224, 5370, 5369
5117, 5224, 5225, 5371, 5370
5118, 5225, 5226, 5372, 5371
5119, 5226, 5227, 5373, 5372
5120, 5227, 5228, 5374, 5373
5121, 5228, 5229, 5375, 5374
5122, 5229, 5230, 5376, 5375
5123, 5230, 5231, 5377, 5376
5124, 5231, 5232, 5378, 5377
5125, 5232, 5233, 5379, 5378
5126, 5233, 5234, 5380, 5379
5127, 5234, 5235, 5381, 5380
5128, 5235, 5236, 5382, 5381
5129, 5236, 5237, 5383, 5382
5130, 5237, 5238, 5384, 5383
5131, 5238, 5239, 5385, 5384
5132, 5239, 5240, 5386, 5385
5133, 5240, 5241, 5387, 5386
5134, 5241, 5242, 5388, 5387
5135, 5242, 5243, 5389, 5388
5136, 5243, 5244, 5390, 5389
5137, 5244, 5245, 5391, 5390
5138, 5245, 5246, 5392, 5391
5139, 5246, 5247, 5393, 5392
5140, 5247, 5248, 5394, 5393
5141, 5248, 5249, 5395, 5394
5142, 5249, 5250, 5396, 5395
5143, 5250, 5251, 5397, 5396
5144, 5251, 5252, 5398, 5397
5145, 5252, 5253, 5399, 5398
5146, 5253, 5254, 5400, 5399
5147, 5254, 5255, 5401, 5400
5148, 5255, 5256, 5402, 5401
5149, 5256, 5257, 5403, 5402
5150, 5257, 5258, 5404, 5403
5151, 5258, 5259, 5405, 5404
5152, 5259, 5260, 5406, 5405
5153, 5260, 5261, 5407, 5406
5154, 5261, 5262, 5408, 5407
5155, 5262, 5263, 5409, 5408
5156, 5263, 5264, 5410, 5409
5157, 5264, 5265, 5411, 5410
5158, 5265, 5266, 5412, 5411
5159, 5266, 5267, 5413, 5412
5160, 5267, 5268, 5414, 5413
5161, 5268, 5269, 5415, 5414
5162, 5269, 5270, 5416, 5415
5163, 5270, 5271, 5417, 5416
5164, 5271, 5272, 5418, 5417
5165, 5272, 5273, 5419, 5418
5166, 5273, 5274, 5420, 5419
5167, 5274, 5275, 5421, 5420
5168, 5275, 5276, 5422, 5421
5169, 5276, 5277, 5423, 5422
5170, 5277, 5278, 5424, 5423
5171, 5278, 5279, 5425, 5424
5172, 5279, 5280, 5426, 5425
5173, 5280, 5281, 5427, 5426
5174, 5281, 5282, 5428, 5427
5175, 5282, 5283, 5429, 5428
5176, 5283, 5284, 5430, 5429
5177, 5284, 5285, 5431, 5430
5178, 5285, 5286, 5432, 5431
5179, 5286, 5287, 5433, 5432
5180, 5287, 5288, 5434, 5433
5181, 5288, 5289, 5435, 5434
5182, 5289, 5290, 5436, 5435
5183, 5290, 5291, 5437, 5436
5184, 5291, 5292, 5438, 5437
5185, 5292, 5293, 5439, 5438
5186, 5293, 5294, 5440, 5439
5187, 5294, 5295, 5441, 5440
5188, 5295, 5296, 5442, 5441
5189, 5296, 5297, 5443, 5442
5190, 5297, 5298, 5444, 5443
5191, 5298, 5299, 5445, 5444
5192, 5299, 5300, 5446, 5445
5193, 5300, 5301, 5447, 5446
5194, 5301, 5302, 5448, 5447
5195, 5302, 5303, 5449, 5448
5196, 5303, 5304, 5450, 5449
5197, 5304, 5305, 5451, 5450
5198, 5305, 5306, 5452, 5451
5199, 5306, 5307, 5453, 5452
5200, 5307, 5308, 5454, 5453
5201, 5308, 5309, 5455, 5454
5202, 5309, 5310, 5456, 5455
5203, 5310, 5311, 5457, 5456
5204, 5311, 5312, 5458, 5457
5205, 5312, 5313, 5459, 5458
5206, 5313, 5314, 5460, 5459
5207, 5314, 5315, 5461, 5460
5208, 5315, 5316, 5462, 5461
5209, 5316, 5317, 5463, 5462
5210, 5317, 5318, 5464, 5463
5211, 5318, 5319, 5465, 5464
5212, 5319, 5320, 5466, 5465
5213, 5320, 5321, 5467, 5466
5214, 5321, 5322, 5468, 5467
5215, 5324, 5323, 5469, 5470
5216, 5323, 5325, 5471, 5469
5217, 5325, 5326, 5472, 5471
5218, 5326, 5327, 5473, 5472
5219, 5327, 5328, 5474, 5473
5220, 5328, 5329, 5475, 5474
5221, 5329, 5330, 5476, 5475
5222, 5330, 5331, 5477, 5476
5223, 5331, 5332, 5478, 5477
5224, 5332, 5333, 5479, 5478
5225, 5333, 5334, 5480, 5479
5226, 5334, 5335, 5481, 5480
5227, 5335, 5336, 5482, 5481
5228, 5336, 5337, 5483, 5482
5229, 5337, 5338, 5484, 5483
5230, 5338, 5339, 5485, 5484
5231, 5339, 5340, 5486, 5485
5232, 5340, 5341, 5487, 5486
5233, 5341, 5342, 5488, 5487
5234, 5342, 5343, 5489, 5488
5235, 5343, 5344, 5490, 5489
5236, 5344, 5345, 5491, 5490
5237, 5345, 5346, 5492, 5491
5238, 5346, 5347, 5493, 5492
5239, 5347, 5348, 5494, 5493
5240, 5348, 5349, 5495, 5494
5241, 5349, 5350, 5496, 5495
5242, 5350, 5351, 5497, 5496
5243, 5351, 5352, 5498, 5497
5244, 5352, 5353, 5499, 5498
5245, 5353, 5354, 5500, 5499
5246, 5354, 5355, 5501, 5500
5247, 5355, 5356, 5502, 5501
5248, 5356, 5357, 5503, 5502
5249, 5357, 5358, 5504, 5503
5250, 5358, 5359, 5505, 5504
5251, 5359, 5360, 5506, 5505
5252, 5360, 5361, 5507, 5506
5253, 5361, 5362, 5508, 5507
5254, 5362, 5363, 5509, 5508
5255, 5363, 5364, 5510, 5509
5256, 5364, 5365, 5511, 5510
5257, 5365, 5366, 5512, 5511
5258, 5366, 5367, 5513, 5512
5259, 5367, 5368, 5514, 5513
5260, 5368, 5369, 5515, 5514
5261, 5369, 5370, 5516, 5515
5262, 5370, 5371, 5517, 5516
5263, 5371, 5372, 5518, 5517
5264, 5372, 5373, 5519, 5518
5265, 5373, 5374, 5520, 5519
5266, 5374, 5375, 5521, 5520
5267, 5375, 5376, 5522, 5521
5268, 5376, 5377, 5523, 5522
5269, 5377, 5378, 5524, 5523
5270, 5378, 5379, 5525, 5524
5271, 5379, 5380, 5526, 5525
5272, 5380, 5381, 5527, 5526
5273, 5381, 5382, 5528, 5527
5274, 5382, 5383, 5529, 5528
5275, 5383, 5384, 5530, 5529
5276, 5384, 5385, 5531, 5530
5277, 5385, 5386, 5532, 5531
5278, 5386, 5387, 5533, 5532
5279, 5387, 5388, 5534, 5533
5280, 5388, 5389, 5535, 5534
5281, 5389, 5390, 5536, 5535
5282, 5390, 5391, 5537, 5536
5283, 5391, 5392, 5538, 5537
5284, 5392, 5393, 5539, 5538
5285, 5393, 5394, 5540, 5539
5286, 5394, 5395, 5541, 5540
5287, 5395, 5396, 5542, 5541
5288, 5396, 5397, 5543, 5542
5289, 5397, 5398, 5544, 5543
5290, 5398, 5399, 5545, 5544
5291, 5399, 5400, 5546, 5545
5292, 5400, 5401, 5547, 5546
5293, 5401, 5402, 5548, 5547
5294, 5402, 5403, 5549, 5548
5295, 5403, 5404, 5550, 5549
5296, 5404, 5405, 5551, 5550
5297, 5405, 5406, 5552, 5551
5298, 5406, 5407, 5553, 5552
5299, 5407, 5408, 5554, 5553
5300, 5408, 5409, 5555, 5554
5301, 5409, 5410, 5556, 5555
5302, 5410, 5411, 5557, 5556
5303, 5411, 5412, 5558, 5557
5304, 5412, 5413, 5559, 5558
5305, 5413, 5414, 5560, 5559
5306, 5414, 5415, 5561, 5560
5307, 5415, 5416, 5562, 5561
5308, 5416, 5417, 5563, 5562
5309, 5417, 5418, 5564, 5563
5310, 5418, 5419, 5565, 5564
5311, 5419, 5420, 5566, 5565
5312, 5420, 5421, 5567, 5566
5313, 5421, 5422, 5568, 5567
5314, 5422, 5423, 5569, 5568
5315, 5423, 5424, 5570, 5569
5316, 5424, 5425, 5571, 5570
5317, 5425, 5426, 5572, 5571
5318, 5426, 5427, 5573, 5572
5319, 5427, 5428, 5574, 5573
5320, 5428, 5429, 5575, 5574
5321, 5429, 5430, 5576, 5575
5322, 5430, 5431, 5577, 5576
5323, 5431, 5432, 5578, 5577
5324, 5432, 5433, 5579, 5578
5325, 5433, 5434, 5580, 5579
5326, 5434, 5435, 5581, 5580
5327, 5435, 5436, 5582, 5581
5328, 5436, 5437, 5583, 5582
5329, 5437, 5438, 5584, 5583
5330, 5438, 5439, 5585, 5584
5331, 5439, 5440, 5586, 5585
5332, 5440, 5441, 5587, 5586
5333, 5441, 5442, 5588, 5587
5334, 5442, 5443, 5589, 5588
5335, 5443, 5444, 5590, 5589
5336, 5444, 5445, 5591, 5590
5337, 5445, 5446, 5592, 5591
5338, 5446, 5447, 5593, 5592
5339, 5447, 5448, 5594, 5593
5340, 5448, 5449, 5595, 5594
5341, 5449, 5450, 5596, 5595
5342, 5450, 5451, 5597, 5596
5343, 5451, 5452, 5598, 5597
5344, 5452, 5453, 5599, 5598
5345, 5453, 5454, 5600, 5599
5346, 5454, 5455, 5601, 5600
5347, 5455, 5456, 5602, 5601
5348, 5456, 5457, 5603, 5602
5349, 5457, 5458, 5604, 5603
5350, 5458, 5459, 5605, 5604
5351, 5459, 5460, 5606, 5605
5352, 5460, 5461, 5607, 5606
5353, 5461, 5462, 5608, 5607
5354, 5462, 5463, 5609, 5608
5355, 5463, 5464, 5610, 5609
5356, 5464, 5465, 5611, 5610
5357, 5465, 5466, 5612, 5611
5358, 5466, 5467, 5613, 5612
5359, 5467, 5468, 5614, 5613
5360, 5470, 5469, 5615, 5616
5361, 5469, 5471, 5617, 5615
5362, 5471, 5472, 5618, 5617
5363, 5472, 5473, 5619, 5618
5364, 5473, 5474, 5620, 5619
5365, 5474, 5475, 5621, 5620
5366, 5475, 5476, 5622, 5621
5367, 5476, 5477, 5623, 5622
5368, 5477, 5478, 5624, 5623
5369, 5478, 5479, 5625, 5624
5370, 5479, 5480, 5626, 5625
5371, 5480, 5481, 5627, 5626
5372, 5481, 5482, 5628, 5627
5373, 5482, 5483, 5629, 5628
5374, 5483, 5484, 5630, 5629
5375, 5484, 5485, 5631, 5630
5376, 5485, 5486, 5632, 5631
5377, 5486, 5487, 5633, 5632
5378, 5487, 5488, 5634, 5633
5379, 5488, 5489, 5635, 5634
5380, 5489, 5490, 5636, 5635
5381, 5490, 5491, 5637, 5636
5382, 5491, 5492, 5638, 5637
5383, 5492, 5493, 5639, 5638
5384, 5493, 5494, 5640, 5639
5385, 5494, 5495, 5641, 5640
5386, 5495, 5496, 5642, 5641
5387, 5496, 5497, 5643, 5642
5388, 5497, 5498, 5644, 5643
5389, 5498, 5499, 5645, 5644
5390, 5499, 5500, 5646, 5645
5391, 5500, 5501, 5647, 5646
5392, 5501, 5502, 5648, 5647
5393, 5502, 5503, 5649, 5648
5394, 5503, 5504, 5650, 5649
5395, 5504, 5505, 5651, 5650
5396, 5505, 5506, 5652, 5651
5397, 5506, 5507, 5653, 5652
5398, 5507, 5508, 5654, 5653
5399, 5508, 5509, 5655, 5654
5400, 5509, 5510, 5656, 5655
5401, 5510, 5511, 5657, 5656
5402, 5511, 5512, 5658, 5657
5403, 5512, 5513, 5659, 5658
5404, 5513, 5514, 5660, 5659
5405, 5514, 5515, 5661, 5660
5406, 5515, 5516, 5662, 5661
5407, 5516, 5517, 5663, 5662
5408, 5517, 5518, 5664, 5663
5409, 5518, 5519, 5665, 5664
5410, 5519, 5520, 5666, 5665
5411, 5520, 5521, 5667, 5666
5412, 5521, 5522, 5668, 5667
5413, 5522, 5523, 5669, 5668
5414, 5523, 5524, 5670, 5669
5415, 5524, 5525, 5671, 5670
5416, 5525, 5526, 5672, 5671
5417, 5526, 5527, 5673, 5672
5418, 5527, 5528, 5674, 5673
5419, 5528, 5529, 5675, 5674
5420, 5529, 5530, 5676, 5675
5421, 5530, 5531, 5677, 5676
5422, 5531, 5532, 5678, 5677
5423, 5532, 5533, 5679, 5678
5424, 5533, 5534, 5680, 5679
5425, 5534, 5535, 5681, 5680
5426, 5535, 5536, 5682, 5681
5427, 5536, 5537, 5683, 5682
5428, 5537, 5538, 5684, 5683
5429, 5538, 5539, 5685, 5684
5430, 5539, 5540, 5686, 5685
5431, 5540, 5541, 5687, 5686
5432, 5541, 5542, 5688, 5687
5433, 5542, 5543, 5689, 5688
5434, 5543, 5544, 5690, 5689
5435, 5544, 5545, 5691, 5690
5436, 5545, 5546, 5692, 5691
5437, 5546, 5547, 5693, 5692
5438, 5547, 5548, 5694, 5693
5439, 5548, 5549, 5695, 5694
5440, 5549, 5550, 5696, 5695
5441, 5550, 5551, 5697, 5696
5442, 5551, 5552, 5698, 5697
5443, 5552, 5553, 5699, 5698
5444, 5553, 5554, 5700, 5699
5445, 5554, 5555, 5701, 5700
5446, 5555, 5556, 5702, 5701
5447, 5556, 5557, 5703, 5702
5448, 5557, 5558, 5704, 5703
5449, 5558, 5559, 5705, 5704
5450, 5559, 5560, 5706, 5705
5451, 5560, 5561, 5707, 5706
5452, 5561, 5562, 5708, 5707
5453, 5562, 5563, 5709, 5708
5454, 5563, 5564, 5710, 5709
5455, 5564, 5565, 5711, 5710
5456, 5565, 5566, 5712, 5711
5457, 5566, 5567, 5713, 5712
5458, 5567, 5568, 5714, 5713
5459, 5568, 5569, 5715, 5714
5460, 5569, 5570, 5716, 5715
5461, 5570, 5571, 5717, 5716
5462, 5571, 5572, 5718, 5717
5463, 5572, 5573, 5719, 5718
5464, 5573, 5574, 5720, 5719
5465, 5574, 5575, 5721, 5720
5466, 5575, 5576, 5722, 5721
5467, 5576, 5577, 5723, 5722
5468, 5577, 5578, 5724, 5723
5469, 5578, 5579, 5725, 5724
5470, 5579, 5580, 5726, 5725
5471, 5580, 5581, 5727, 5726
5472, 5581, 5582, 5728, 5727
5473, 5582, 5583, 5729, 5728
5474, 5583, 5584, 5730, 5729
5475, 5584, 5585, 5731, 5730
5476, 5585, 5586, 5732, 5731
5477, 5586, 5587, 5733, 5732
5478, 5587, 5588, 5734, 5733
5479, 5588, 5589, 5735, 5734
5480, 5589, 5590, 5736, 5735
5481, 5590, 5591, 5737, 5736
5482, 5591, 5592, 5738, 5737
5483, 5592, 5593, 5739, 5738
5484, 5593, 5594, 5740, 5739
5485, 5594, 5595, 5741, 5740
5486, 5595, 5596, 5742, 5741
5487, 5596, 5597, 5743, 5742
5488, 5597, 5598, 5744, 5743
5489, 5598, 5599, 5745, 5744
5490, 5599, 5600, 5746, 5745
5491, 5600, 5601, 5747, 5746
5492, 5601, 5602, 5748, 5747
5493, 5602, 5603, 5749, 5748
5494, 5603, 5604, 5750, 5749
5495, 5604, 5605, 5751, 5750
5496, 5605, 5606, 5752, 5751
5497, 5606, 5607, 5753, 5752
5498, 5607, 5608, 5754, 5753
5499, 5608, 5609, 5755, 5754
5500, 5609, 5610, 5756, 5755
5501, 5610, 5611, 5757, 5756
5502, 5611, 5612, 5758, 5757
5503, 5612, 5613, 5759, 5758
5504, 5613, 5614, 5760, 5759
5505, 5616, 5615, 5761, 5762
5506, 5615, 5617, 5763, 5761
5507, 5617, 5618, 5764, 5763
5508, 5618, 5619, 5765, 5764
5509, 5619, 5620, 5766, 5765
5510, 5620, 5621, 5767, 5766
5511, 5621, 5622, 5768, 5767
5512, 5622, 5623, 5769, 5768
5513, 5623, 5624, 5770, 5769
5514, 5624, 5625, 5771, 5770
5515, 5625, 5626, 5772, 5771
5516, 5626, 5627, 5773, 5772
5517, 5627, 5628, 5774, 5773
5518, 5628, 5629, 5775, 5774
5519, 5629, 5630, 5776, 5775
5520, 5630, 5631, 5777, 5776
5521, 5631, 5632, 5778, 5777
5522, 5632, 5633, 5779, 5778
5523, 5633, 5634, 5780, 5779
5524, 5634, 5635, 5781, 5780
5525, 5635, 5636, 5782, 5781
5526, 5636, 5637, 5783, 5782
5527, 5637, 5638, 5784, 5783
5528, 5638, 5639, 5785, 5784
5529, 5639, 5640, 5786, 5785
5530, 5640, 5641, 5787, 5786
5531, 5641, 5642, 5788, 5787
5532, 5642, 5643, 5789, 5788
5533, 5643, 5644, 5790, 5789
5534, 5644, 5645, 5791, 5790
5535, 5645, 5646, 5792, 5791
5536, 5646, 5647, 5793, 5792
5537, 5647, 5648, 5794, 5793
5538, 5648, 5649, 5795, 5794
5539, 5649, 5650, 5796, 5795
5540, 5650, 5651, 5797, 5796
5541, 5651, 5652, 5798, 5797
5542, 5652, 5653, 5799, 5798
5543, 5653, 5654, 5800, 5799
5544, 5654, 5655, 5801, 5800
5545, 5655, 5656, 5802, 5801
5546, 5656, 5657, 5803, 5802
5547, 5657, 5658, 5804, 5803
5548, 5658, 5659, 5805, 5804
5549, 5659, 5660, 5806, 5805
5550, 5660, 5661, 5807, 5806
5551, 5661, 5662, 5808, 5807
5552, 5662, 5663, 5809, 5808
5553, 5663, 5664, 5810, 5809
5554, 5664, 5665, 5811, 5810
5555, 5665, 5666, 5812, 5811
5556, 5666, 5667, 5813, 5812
5557, 5667, 5668, 5814, 5813
5558, 5668, 5669, 5815, 5814
5559, 5669, 5670, 5816, 5815
5560, 5670, 5671, 5817, 5816
5561, 5671, 5672, 5818, 5817
5562, 5672, 5673, 5819, 5818
5563, 5673, 5674, 5820, 5819
5564, 5674, 5675, 5821, 5820
5565, 5675, 5676, 5822, 5821
5566, 5676, 5677, 5823, 5822
5567, 5677, 5678, 5824, 5823
5568, 5678, 5679, 5825, 5824
5569, 5679, 5680, 5826, 5825
5570, 5680, 5681, 5827, 5826
5571, 5681, 5682, 5828, 5827
5572, 5682, 5683, 5829, 5828
5573, 5683, 5684, 5830, 5829
5574, 5684, 5685, 5831, 5830
5575, 5685, 5686, 5832, 5831
5576, 5686, 5687, 5833, 5832
5577, 5687, 5688, 5834, 5833
5578, 5688, 5689, 5835, 5834
5579, 5689, 5690, 5836, 5835
5580, 5690, 5691, 5837, 5836
5581, 5691, 5692, 5838, 5837
5582, 5692, 5693, 5839, 5838
5583, 5693, 5694, 5840, 5839
5584, 5694, 5695, 5841, 5840
5585, 5695, 5696, 5842, 5841
5586, 5696, 5697, 5843, 5842
5587, 5697, 5698, 5844, 5843
5588, 5698, 5699, 5845, 5844
5589, 5699, 5700, 5846, 5845
5590, 5700, 5701, 5847, 5846
5591, 5701, 5702, 5848, 5847
5592, 5702, 5703, 5849, 5848
5593, 5703, 5704, 5850, 5849
5594, 5704, 5705, 5851, 5850
5595, 5705, 5706, 5852, 5851
5596, 5706, 5707, 5853, 5852
5597, 5707, 5708, 5854, 5853
5598, 5708, 5709, 5855, 5854
5599, 5709, 5710, 5856, 5855
5600, 5710, 5711, 5857, 5856
5601, 5711, 5712, 5858, 5857
5602, 5712, 5713, 5859, 5858
5603, 5713, 5714, 5860, 5859
5604, 5714, 5715, 5861, 5860
5605, 5715, 5716, 5862, 5861
5606, 5716, 5717, 5863, 5862
5607, 5717, 5718, 5864, 5863
5608, 5718, 5719, 5865, 5864
5609, 5719, 5720, 5866, 5865
5610, 5720, 5721, 5867, 5866
5611, 5721, 5722, 5868, 5867
5612, 5722, 5723, 5869, 5868
5613, 5723, 5724, 5870, 5869
5614, 5724, 5725, 5871, 5870
5615, 5725, 5726, 5872, 5871
5616, 5726, 5727, 5873, 5872
5617, 5727, 5728, 5874, 5873
5618, 5728, 5729, 5875, 5874
5619, 5729, 5730, 5876, 5875
5620, 5730, 5731, 5877, 5876
5621, 5731, 5732, 5878, 5877
5622, 5732, 5733, 5879, 5878
5623, 5733, 5734, 5880, 5879
5624, 5734, 5735, 5881, 5880
5625, 5735, 5736, 5882, 5881
5626, 5736, 5737, 5883, 5882
5627, 5737, 5738, 5884, 5883
5628, 5738, 5739, 5885, 5884
5629, 5739, 5740, 5886, 5885
5630, 5740, 5741, 5887, 5886
5631, 5741, 5742, 5888, 5887
5632, 5742, 5743, 5889, 5888
5633, 5743, 5744, 5890, 5889
5634, 5744, 5745, 5891, 5890
5635, 5745, 5746, 5892, 5891
5636, 5746, 5747, 5893, 5892
5637, 5747, 5748, 5894, 5893
5638, 5748, 5749, 5895, 5894
5639, 5749, 5750, 5896, 5895
5640, 5750, 5751, 5897, 5896
5641, 5751, 5752, 5898, 5897
5642, 5752, 5753, 5899, 5898
5643, 5753, 5754, 5900, 5899
5644, 5754, 5755, 5901, 5900
5645, 5755, 5756, 5902, 5901
5646, 5756, 5757, 5903, 5902
5647, 5757, 5758, 5904, 5903
5648, 5758, 5759, 5905, 5904
5649, 5759, 5760, 5906, 5905
5650, 5762, 5761, 5907, 5908
5651, 5761, 5763, 5909, 5907
5652, 5763, 5764, 5910, 5909
5653, 5764, 5765, 5911, 5910
5654, 5765, 5766, 5912, 5911
5655, 5766, 5767, 5913, 5912
5656, 5767, 5768, 5914, 5913
5657, 5768, 5769, 5915, 5914
5658, 5769, 5770, 5916, 5915
5659, 5770, 5771, 5917, 5916
5660, 5771, 5772, 5918, 5917
5661, 5772, 5773, 5919, 5918
5662, 5773, 5774, 5920, 5919
5663, 5774, 5775, 5921, 5920
5664, 5775, 5776, 5922, 5921
5665, 5776, 5777, 5923, 5922
5666, 5777, 5778, 5924, 5923
5667, 5778, 5779, 5925, 5924
5668, 5779, 5780, 5926, 5925
5669, 5780, 5781, 5927, 5926
5670, 5781, 5782, 5928, 5927
5671, 5782, 5783, 5929, 5928
5672, 5783, 5784, 5930, 5929
5673, 5784, 5785, 5931, 5930
5674, 5785, 5786, 5932, 5931
5675, 5786, 5787, 5933, 5932
5676, 5787, 5788, 5934, 5933
5677, 5788, 5789, 5935, 5934
5678, 5789, 5790, 5936, 5935
5679, 5790, 5791, 5937, 5936
5680, 5791, 5792, 5938, 5937
5681, 5792, 5793, 5939, 5938
5682, 5793, 5794, 5940, 5939
5683, 5794, 5795, 5941, 5940
5684, 5795, 5796, 5942, 5941
5685, 5796, 5797, 5943, 5942
5686, 5797, 5798, 5944, 5943
5687, 5798, 5799, 5945, 5944
5688, 5799, 5800, 5946, 5945
5689, 5800, 5801, 5947, 5946
5690, 5801, 5802, 5948, 5947
5691, 5802, 5803, 5949, 5948
5692, 5803, 5804, 5950, 5949
5693, 5804, 5805, 5951, 5950
5694, 5805, 5806, 5952, 5951
5695, 5806, 5807, 5953, 5952
5696, 5807, 5808, 5954, 5953
5697, 5808, 5809, 5955, 5954
5698, 5809, 5810, 5956, 5955
5699, 5810, 5811, 5957, 5956
5700, 5811, 5812, 5958, 5957
5701, 5812, 5813, 5959, 5958
5702, 5813, 5814, 5960, 5959
5703, 5814, 5815, 5961, 5960
5704, 5815, 5816, 5962, 5961
5705, 5816, 5817, 5963, 5962
5706, 5817, 5818, 5964, 5963
5707, 5818, 5819, 5965, 5964
5708, 5819, 5820, 5966, 5965
5709, 5820, 5821, 5967, 5966
5710, 5821, 5822, 5968, 5967
5711, 5822, 5823, 5969, 5968
5712, 5823, 5824, 5970, 5969
5713, 5824, 5825, 5971, 5970
5714, 5825, 5826, 5972, 5971
5715, 5826, 5827, 5973, 5972
5716, 5827, 5828, 5974, 5973
5717, 5828, 5829, 5975, 5974
5718, 5829, 5830, 5976, 5975
5719, 5830, 5831, 5977, 5976
5720, 5831, 5832, 5978, 5977
5721, 5832, 5833, 5979, 5978
5722, 5833, 5834, 5980, 5979
5723, 5834, 5835, 5981, 5980
5724, 5835, 5836, 5982, 5981
5725, 5836, 5837, 5983, 5982
5726, 5837, 5838, 5984, 5983
5727, 5838, 5839, 5985, 5984
5728, 5839, 5840, 5986, 5985
5729, 5840, 5841, 5987, 5986
5730, 5841, 5842, 5988, 5987
5731, 5842, 5843, 5989, 5988
5732, 5843, 5844, 5990, 5989
5733, 5844, 5845, 5991, 5990
5734, 5845, 5846, 5992, 5991
5735, 5846, 5847, 5993, 5992
5736, 5847, 5848, 5994, 5993
5737, 5848, 5849, 5995, 5994
5738, 5849, 5850, 5996, 5995
5739, 5850, 5851, 5997, 5996
5740, 5851, 5852, 5998, 5997
5741, 5852, 5853, 5999, 5998
5742, 5853, 5854, 6000, 5999
5743, 5854, 5855, 6001, 6000
5744, 5855, 5856, 6002, 6001
5745, 5856, 5857, 6003, 6002
5746, 5857, 5858, 6004, 6003
5747, 5858, 5859, 6005, 6004
5748, 5859, 5860, 6006, 6005
5749, 5860, 5861, 6007, 6006
5750, 5861, 5862, 6008, 6007
5751, 5862, 5863, 6009, 6008
5752, 5863, 5864, 6010, 6009
5753, 5864, 5865, 6011, 6010
5754, 5865, 5866, 6012, 6011
5755, 5866, 5867, 6013, 6012
5756, 5867, 5868, 6014, 6013
5757, 5868, 5869, 6015, 6014
5758, 5869, 5870, 6016, 6015
5759, 5870, 5871, 6017, 6016
5760, 5871, 5872, 6018, 6017
5761, 5872, 5873, 6019, 6018
5762, 5873, 5874, 6020, 6019
5763, 5874, 5875, 6021, 6020
5764, 5875, 5876, 6022, 6021
5765, 5876, 5877, 6023, 6022
5766, 5877, 5878, 6024, 6023
5767, 5878, 5879, 6025, 6024
5768, 5879, 5880, 6026, 6025
5769, 5880, 5881, 6027, 6026
5770, 5881, 5882, 6028, 6027
5771, 5882, 5883, 6029, 6028
5772, 5883, 5884, 6030, 6029
5773, 5884, 5885, 6031, 6030
5774, 5885, 5886, 6032, 6031
5775, 5886, 5887, 6033, 6032
5776, 5887, 5888, 6034, 6033
5777, 5888, 5889, 6035, 6034
5778, 5889, 5890, 6036, 6035
5779, 5890, 5891, 6037, 6036
5780, 5891, 5892, 6038, 6037
5781, 5892, 5893, 6039, 6038
5782, 5893, 5894, 6040, 6039
5783, 5894, 5895, 6041, 6040
5784, 5895, 5896, 6042, 6041
5785, 5896, 5897, 6043, 6042
5786, 5897, 5898, 6044, 6043
5787, 5898, 5899, 6045, 6044
5788, 5899, 5900, 6046, 6045
5789, 5900, 5901, 6047, 6046
5790, 5901, 5902, 6048, 6047
5791, 5902, 5903, 6049, 6048
5792, 5903, 5904, 6050, 6049
5793, 5904, 5905, 6051, 6050
5794, 5905, 5906, 6052, 6051
5795, 5908, 5907, 6053, 6054
5796, 5907, 5909, 6055, 6053
5797, 5909, 5910, 6056, 6055
5798, 5910, 5911, 6057, 6056
5799, 5911, 5912, 6058, 6057
5800, 5912, 5913, 6059, 6058
5801, 5913, 5914, 6060, 6059
5802, 5914, 5915, 6061, 6060
5803, 5915, 5916, 6062, 6061
5804, 5916, 5917, 6063, 6062
5805, 5917, 5918, 6064, 6063
5806, 5918, 5919, 6065, 6064
5807, 5919, 5920, 6066, 6065
5808, 5920, 5921, 6067, 6066
5809, 5921, 5922, 6068, 6067
5810, 5922, 5923, 6069, 6068
5811, 5923, 5924, 6070, 6069
5812, 5924, 5925, 6071, 6070
5813, 5925, 5926, 6072, 6071
5814, 5926, 5927, 6073, 6072
5815, 5927, 5928, 6074, 6073
5816, 5928, 5929, 6075, 6074
5817, 5929, 5930, 6076, 6075
5818, 5930, 5931, 6077, 6076
5819, 5931, 5932, 6078, 6077
5820, 5932, 5933, 6079, 6078
5821, 5933, 5934, 6080, 6079
5822, 5934, 5935, 6081, 6080
5823, 5935, 5936, 6082, 6081
5824, 5936, 5937, 6083, 6082
5825, 5937, 5938, 6084, 6083
5826, 5938, 5939, 6085, 6084
5827, 5939, 5940, 6086, 6085
5828, 5940, 5941, 6087, 6086
5829, 5941, 5942, 6088, 6087
5830, 5942, 5943, 6089, 6088
5831, 5943, 5944, 6090, 6089
5832, 5944, 5945, 6091, 6090
5833, 5945, 5946, 6092, 6091
5834, 5946, 5947, 6093, 6092
5835, 5947, 5948, 6094, 6093
5836, 5948, 5949, 6095, 6094
5837, 5949, 5950, 6096, 6095
5838, 5950, 5951, 6097, 6096
5839, 5951, 5952, 6098, 6097
5840, 5952, 5953, 6099, 6098
5841, 5953, 5954, 6100, 6099
5842, 5954, 5955, 6101, 6100
5843, 5955, 5956, 6102, 6101
5844, 5956, 5957, 6103, 6102
5845, 5957, 5958, 6104, 6103
5846, 5958, 5959, 6105, 6104
5847, 5959, 5960, 6106, 6105
5848, 5960, 5961, 6107, 6106
5849, 5961, 5962, 6108, 6107
5850, 5962, 5963, 6109, 6108
5851, 5963, 5964, 6110, 6109
5852, 5964, 5965, 6111, 6110
5853, 5965, 5966, 6112, 6111
5854, 5966, 5967, 6113, 6112
5855, 5967, 5968, 6114, 6113
5856, 5968, 5969, 6115, 6114
5857, 5969, 5970, 6116, 6115
5858, 5970, 5971, 6117, 6116
5859, 5971, 5972, 6118, 6117
5860, 5972, 5973, 6119, 6118
5861, 5973, 5974, 6120, 6119
5862, 5974, 5975, 6121, 6120
5863, 5975, 5976, 6122, 6121
5864, 5976, 5977, 6123, 6122
5865, 5977, 5978, 6124, 6123
5866, 5978, 5979, 6125, 6124
5867, 5979, 5980, 6126, 6125
5868, 5980, 5981, 6127, 6126
5869, 5981, 5982, 6128, 6127
5870, 5982, 5983, 6129, 6128
5871, 5983, 5984, 6130, 6129
5872, 5984, 5985, 6131, 6130
5873, 5985, 5986, 6132, 6131
5874, 5986, 5987, 6133, 6132
5875, 5987, 5988, 6134, 6133
5876, 5988, 5989, 6135, 6134
5877, 5989, 5990, 6136, 6135
5878, 5990, 5991, 6137, 6136
5879, 5991, 5992, 6138, 6137
5880, 5992, 5993, 6139, 6138
5881, 5993, 5994, 6140, 6139
5882, 5994, 5995, 6141, 6140
5883, 5995, 5996, 6142, 6141
5884, 5996, 5997, 6143, 6142
5885, 5997, 5998, 6144, 6143
5886, 5998, 5999, 6145, 6144
5887, 5999, 6000, 6146, 6145
5888, 6000, 6001, 6147, 6146
5889, 6001, 6002, 6148, 6147
5890, 6002, 6003, 6149, 6148
5891, 6003, 6004, 6150, 6149
5892, 6004, 6005, 6151, 6150
5893, 6005, 6006, 6152, 6151
5894, 6006, 6007, 6153, 6152
5895, 6007, 6008, 6154, 6153
5896, 6008, 6009, 6155, 6154
5897, 6009, 6010, 6156, 6155
5898, 6010, 6011, 6157, 6156
5899, 6011, 6012, 6158, 6157
5900, 6012, 6013, 6159, 6158
5901, 6013, 6014, 6160, 6159
5902, 6014, 6015, 6161, 6160
5903, 6015, 6016, 6162, 6161
5904, 6016, 6017, 6163, 6162
5905, 6017, 6018, 6164, 6163
5906, 6018, 6019, 6165, 6164
5907, 6019, 6020, 6166, 6165
5908, 6020, 6021, 6167, 6166
5909, 6021, 6022, 6168, 6167
5910, 6022, 6023, 6169, 6168
5911, 6023, 6024, 6170, 6169
5912, 6024, 6025, 6171, 6170
5913, 6025, 6026, 6172, 6171
5914, 6026, 6027, 6173, 6172
5915, 6027, 6028, 6174, 6173
5916, 6028, 6029, 6175, 6174
5917, 6029, 6030, 6176, 6175
5918, 6030, 6031, 6177, 6176
5919, 6031, 6032, 6178, 6177
5920, 6032, 6033, 6179, 6178
5921, 6033, 6034, 6180, 6179
5922, 6034, 6035, 6181, 6180
5923, 6035, 6036, 6182, 6181
5924, 6036, 6037, 6183, 6182
5925, 6037, 6038, 6184, 6183
5926, 6038, 6039, 6185, 6184
5927, 6039, 6040, 6186, 6185
5928, 6040, 6041, 6187, 6186
5929, 6041, 6042, 6188, 6187
5930, 6042, 6043, 6189, 6188
5931, 6043, 6044, 6190, 6189
5932, 6044, 6045, 6191, 6190
5933, 6045, 6046, 6192, 6191
5934, 6046, 6047, 6193, 6192
5935, 6054, 6053, 6194, 6195
5936, 6053, 6055, 6196, 6194
5937, 6055, 6056, 6197, 6196
5938, 6056, 6057, 6198, 6197
5939, 6057, 6058, 6199, 6198
5940, 6058, 6059, 6200, 6199
5941, 6059, 6060, 6201, 6200
5942, 6060, 6061, 6202, 6201
5943, 6061, 6062, 6203, 6202
5944, 6062, 6063, 6204, 6203
5945, 6063, 6064, 6205, 6204
5946, 6064, 6065, 6206, 6205
5947, 6065, 6066, 6207, 6206
5948, 6066, 6067, 6208, 6207
5949, 6067, 6068, 6209, 6208
5950, 6068, 6069, 6210, 6209
5951, 6069, 6070, 6211, 6210
5952, 6070, 6071, 6212, 6211
5953, 6071, 6072, 6213, 6212
5954, 6072, 6073, 6214, 6213
5955, 6073, 6074, 6215, 6214
5956, 6074, 6075, 6216, 6215
5957, 6075, 6076, 6217, 6216
5958, 6076, 6077, 6218, 6217
5959, 6077, 6078, 6219, 6218
5960, 6078, 6079, 6220, 6219
5961, 6079, 6080, 6221, 6220
5962, 6080, 6081, 6222, 6221
5963, 6081, 6082, 6223, 6222
5964, 6082, 6083, 6224, 6223
5965, 6083, 6084, 6225, 6224
5966, 6084, 6085, 6226, 6225
5967, 6085, 6086, 6227, 6226
5968, 6086, 6087, 6228, 6227
5969, 6087, 6088, 6229, 6228
5970, 6088, 6089, 6230, 6229
5971, 6089, 6090, 6231, 6230
5972, 6090, 6091, 6232, 6231
5973, 6091, 6092, 6233, 6232
5974, 6092, 6093, 6234, 6233
5975, 6093, 6094, 6235, 6234
5976, 6094, 6095, 6236, 6235
5977, 6095, 6096, 6237, 6236
5978, 6096, 6097, 6238, 6237
5979, 6097, 6098, 6239, 6238
5980, 6098, 6099, 6240, 6239
5981, 6099, 6100, 6241, 6240
5982, 6100, 6101, 6242, 6241
5983, 6101, 6102, 6243, 6242
5984, 6102, 6103, 6244, 6243
5985, 6103, 6104, 6245, 6244
5986, 6104, 6105, 6246, 6245
5987, 6105, 6106, 6247, 6246
5988, 6106, 6107, 6248, 6247
5989, 6107, 6108, 6249, 6248
5990, 6108, 6109, 6250, 6249
5991, 6109, 6110, 6251, 6250
5992, 6110, 6111, 6252, 6251
5993, 6111, 6112, 6253, 6252
5994, 6112, 6113, 6254, 6253
5995, 6113, 6114, 6255, 6254
5996, 6114, 6115, 6256, 6255
5997, 6115, 6116, 6257, 6256
5998, 6116, 6117, 6258, 6257
5999, 6117, 6118, 6259, 6258
6000, 6118, 6119, 6260, 6259
6001, 6119, 6120, 6261, 6260
6002, 6120, 6121, 6262, 6261
6003, 6121, 6122, 6263, 6262
6004, 6122, 6123, 6264, 6263
6005, 6123, 6124, 6265, 6264
6006, 6124, 6125, 6266, 6265
6007, 6125, 6126, 6267, 6266
6008, 6126, 6127, 6268, 6267
6009, 6127, 6128, 6269, 6268
6010, 6128, 6129, 6270, 6269
6011, 6129, 6130, 6271, 6270
6012, 6130, 6131, 6272, 6271
6013, 6131, 6132, 6273, 6272
6014, 6132, 6133, 6274, 6273
6015, 6133, 6134, 6275, 6274
6016, 6134, 6135, 6276, 6275
6017, 6135, 6136, 6277, 6276
6018, 6136, 6137, 6278, 6277
6019, 6137, 6138, 6279, 6278
6020, 6138, 6139, 6280, 6279
6021, 6139, 6140, 6281, 6280
6022, 6140, 6141, 6282, 6281
6023, 6141, 6142, 6283, 6282
6024, 6142, 6143, 6284, 6283
6025, 6143, 6144, 6285, 6284
6026, 6144, 6145, 6286, 6285
6027, 6145, 6146, 6287, 6286
6028, 6146, 6147, 6288, 6287
6029, 6147, 6148, 6289, 6288
6030, 6148, 6149, 6290, 6289
6031, 6149, 6150, 6291, 6290
6032, 6150, 6151, 6292, 6291
6033, 6151, 6152, 6293, 6292
6034, 6152, 6153, 6294, 6293
6035, 6153, 6154, 6295, 6294
6036, 6154, 6155, 6296, 6295
6037, 6155, 6156, 6297, 6296
6038, 6156, 6157, 6298, 6297
6039, 6157, 6158, 6299, 6298
6040, 6158, 6159, 6300, 6299
6041, 6159, 6160, 6301, 6300
6042, 6160, 6161, 6302, 6301
6043, 6161, 6162, 6303, 6302
6044, 6162, 6163, 6304, 6303
6045, 6163, 6164, 6305, 6304
6046, 6164, 6165, 6306, 6305
6047, 6165, 6166, 6307, 6306
6048, 6166, 6167, 6308, 6307
6049, 6167, 6168, 6309, 6308
6050, 6168, 6169, 6310, 6309
6051, 6169, 6170, 6311, 6310
6052, 6170, 6171, 6312, 6311
6053, 6171, 6172, 6313, 6312
6054, 6172, 6173, 6314, 6313
6055, 6173, 6174, 6315, 6314
6056, 6174, 6175, 6316, 6315
6057, 6175, 6176, 6317, 6316
6058, 6176, 6177, 6318, 6317
6059, 6177, 6178, 6319, 6318
6060, 6178, 6179, 6320, 6319
6061, 6179, 6180, 6321, 6320
6062, 6180, 6181, 6322, 6321
6063, 6181, 6182, 6323, 6322
6064, 6182, 6183, 6324, 6323
6065, 6183, 6184, 6325, 6324
6066, 6184, 6185, 6326, 6325
6067, 6195, 6194, 6327, 6328
6068, 6194, 6196, 6329, 6327
6069, 6196, 6197, 6330, 6329
6070, 6197, 6198, 6331, 6330
6071, 6198, 6199, 6332, 6331
6072, 6199, 6200, 6333, 6332
6073, 6200, 6201, 6334, 6333
6074, 6201, 6202, 6335, 6334
6075, 6202, 6203, 6336, 6335
6076, 6203, 6204, 6337, 6336
6077, 6204, 6205, 6338, 6337
6078, 6205, 6206, 6339, 6338
6079, 6206, 6207, 6340, 6339
6080, 6207, 6208, 6341, 6340
6081, 6208, 6209, 6342, 6341
6082, 6209, 6210, 6343, 6342
6083, 6210, 6211, 6344, 6343
6084, 6211, 6212, 6345, 6344
6085, 6212, 6213, 6346, 6345
6086, 6213, 6214, 6347, 6346
6087, 6214, 6215, 6348, 6347
6088, 6215, 6216, 6349, 6348
6089, 6216, 6217, 6350, 6349
6090, 6217, 6218, 6351, 6350
6091, 6218, 6219, 6352, 6351
6092, 6219, 6220, 6353, 6352
6093, 6220, 6221, 6354, 6353
6094, 6221, 6222, 6355, 6354
6095, 6222, 6223, 6356, 6355
6096, 6223, 6224, 6357, 6356
6097, 6224, 6225, 6358, 6357
6098, 6225, 6226, 6359, 6358
6099, 6226, 6227, 6360, 6359
6100, 6227, 6228, 6361, 6360
6101, 6228, 6229, 6362, 6361
6102, 6229, 6230, 6363, 6362
6103, 6230, 6231, 6364, 6363
6104, 6231, 6232, 6365, 6364
6105, 6232, 6233, 6366, 6365
6106, 6233, 6234, 6367, 6366
6107, 6234, 6235, 6368, 6367
6108, 6235, 6236, 6369, 6368
6109, 6236, 6237, 6370, 6369
6110, 6237, 6238, 6371, 6370
6111, 6238, 6239, 6372, 6371
6112, 6239, 6240, 6373, 6372
6113, 6240, 6241, 6374, 6373
6114, 6241, 6242, 6375, 6374
6115, 6242, 6243, 6376, 6375
6116, 6243, 6244, 6377, 6376
6117, 6244, 6245, 6378, 6377
6118, 6245, 6246, 6379, 6378
6119, 6246, 6247, 6380, 6379
6120, 6247, 6248, 6381, 6380
6121, 6248, 6249, 6382, 6381
6122, 6249, 6250, 6383, 6382
6123, 6250, 6251, 6384, 6383
6124, 6251, 6252, 6385, 6384
6125, 6252, 6253, 6386, 6385
6126, 6253, 6254, 6387, 6386
6127, 6254, 6255, 6388, 6387
6128, 6255, 6256, 6389, 6388
6129, 6256, 6257, 6390, 6389
6130, 6257, 6258, 6391, 6390
6131, 6258, 6259, 6392, 6391
6132, 6259, 6260, 6393, 6392
6133, 6260, 6261, 6394, 6393
6134, 6261, 6262, 6395, 6394
6135, 6262, 6263, 6396, 6395
6136, 6263, 6264, 6397, 6396
6137, 6264, 6265, 6398, 6397
6138, 6265, 6266, 6399, 6398
6139, 6266, 6267, 6400, 6399
6140, 6267, 6268, 6401, 6400
6141, 6268, 6269, 6402, 6401
6142, 6269, 6270, 6403, 6402
6143, 6270, 6271, 6404, 6403
6144, 6271, 6272, 6405, 6404
6145, 6272, 6273, 6406, 6405
6146, 6273, 6274, 6407, 6406
6147, 6274, 6275, 6408, 6407
6148, 6275, 6276, 6409, 6408
6149, 6276, 6277, 6410, 6409
6150, 6277, 6278, 6411, 6410
6151, 6278, 6279, 6412, 6411
6152, 6279, 6280, 6413, 6412
6153, 6280, 6281, 6414, 6413
6154, 6281, 6282, 6415, 6414
6155, 6282, 6283, 6416, 6415
6156, 6283, 6284, 6417, 6416
6157, 6284, 6285, 6418, 6417
6158, 6285, 6286, 6419, 6418
6159, 6286, 6287, 6420, 6419
6160, 6287, 6288, 6421, 6420
6161, 6288, 6289, 6422, 6421
6162, 6289, 6290, 6423, 6422
6163, 6290, 6291, 6424, 6423
6164, 6291, 6292, 6425, 6424
6165, 6292, 6293, 6426, 6425
6166, 6293, 6294, 6427, 6426
6167, 6294, 6295, 6428, 6427
6168, 6295, 6296, 6429, 6428
6169, 6296, 6297, 6430, 6429
6170, 6297, 6298, 6431, 6430
6171, 6298, 6299, 6432, 6431
6172, 6299, 6300, 6433, 6432
6173, 6300, 6301, 6434, 6433
6174, 6301, 6302, 6435, 6434
6175, 6302, 6303, 6436, 6435
6176, 6303, 6304, 6437, 6436
6177, 6304, 6305, 6438, 6437
6178, 6305, 6306, 6439, 6438
6179, 6306, 6307, 6440, 6439
6180, 6307, 6308, 6441, 6440
6181, 6308, 6309, 6442, 6441
6182, 6309, 6310, 6443, 6442
6183, 6310, 6311, 6444, 6443
6184, 6311, 6312, 6445, 6444
6185, 6312, 6313, 6446, 6445
6186, 6313, 6314, 6447, 6446
6187, 6314, 6315, 6448, 6447
6188, 6315, 6316, 6449, 6448
6189, 6316, 6317, 6450, 6449
6190, 6317, 6318, 6451, 6450
6191, 6318, 6319, 6452, 6451
6192, 6319, 6320, 6453, 6452
6193, 6328, 6327, 6454, 6455
6194, 6327, 6329, 6456, 6454
6195, 6329, 6330, 6457, 6456
6196, 6330, 6331, 6458, 6457
6197, 6331, 6332, 6459, 6458
6198, 6332, 6333, 6460, 6459
6199, 6333, 6334, 6461, 6460
6200, 6334, 6335, 6462, 6461
6201, 6335, 6336, 6463, 6462
6202, 6336, 6337, 6464, 6463
6203, 6337, 6338, 6465, 6464
6204, 6338, 6339, 6466, 6465
6205, 6339, 6340, 6467, 6466
6206, 6340, 6341, 6468, 6467
6207, 6341, 6342, 6469, 6468
6208, 6342, 6343, 6470, 6469
6209, 6343, 6344, 6471, 6470
6210, 6344, 6345, 6472, 6471
6211, 6345, 6346, 6473, 6472
6212, 6346, 6347, 6474, 6473
6213, 6347, 6348, 6475, 6474
6214, 6348, 6349, 6476, 6475
6215, 6349, 6350, 6477, 6476
6216, 6350, 6351, 6478, 6477
6217, 6351, 6352, 6479, 6478
6218, 6352, 6353, 6480, 6479
6219, 6353, 6354, 6481, 6480
6220, 6354, 6355, 6482, 6481
6221, 6355, 6356, 6483, 6482
6222, 6356, 6357, 6484, 6483
6223, 6357, 6358, 6485, 6484
6224, 6358, 6359, 6486, 6485
6225, 6359, 6360, 6487, 6486
6226, 6360, 6361, 6488, 6487
6227, 6361, 6362, 6489, 6488
6228, 6362, 6363, 6490, 6489
6229, 6363, 6364, 6491, 6490
6230, 6364, 6365, 6492, 6491
6231, 6365, 6366, 6493, 6492
6232, 6366, 6367, 6494, 6493
6233, 6367, 6368, 6495, 6494
6234, 6368, 6369, 6496, 6495
6235, 6369, 6370, 6497, 6496
6236, 6370, 6371, 6498, 6497
6237, 6371, 6372, 6499, 6498
6238, 6372, 6373, 6500, 6499
6239, 6373, 6374, 6501, 6500
6240, 6374, 6375, 6502, 6501
6241, 6375, 6376, 6503, 6502
6242, 6376, 6377, 6504, 6503
6243, 6377, 6378, 6505, 6504
6244, 6378, 6379, 6506, 6505
6245, 6379, 6380, 6507, 6506
6246, 6380, 6381, 6508, 6507
6247, 6381, 6382, 6509, 6508
6248, 6382, 6383, 6510, 6509
6249, 6383, 6384, 6511, 6510
6250, 6384, 6385, 6512, 6511
6251, 6385, 6386, 6513, 6512
6252, 6386, 6387, 6514, 6513
6253, 6387, 6388, 6515, 6514
6254, 6388, 6389, 6516, 6515
6255, 6389, 6390, 6517, 6516
6256, 6390, 6391, 6518, 6517
6257, 6391, 6392, 6519, 6518
6258, 6392, 6393, 6520, 6519
6259, 6393, 6394, 6521, 6520
6260, 6394, 6395, 6522, 6521
6261, 6395, 6396, 6523, 6522
6262, 6396, 6397, 6524, 6523
6263, 6397, 6398, 6525, 6524
6264, 6398, 6399, 6526, 6525
6265, 6399, 6400, 6527, 6526
6266, 6400, 6401, 6528, 6527
6267, 6401, 6402, 6529, 6528
6268, 6402, 6403, 6530, 6529
6269, 6403, 6404, 6531, 6530
6270, 6404, 6405, 6532, 6531
6271, 6405, 6406, 6533, 6532
6272, 6406, 6407, 6534, 6533
6273, 6407, 6408, 6535, 6534
6274, 6408, 6409, 6536, 6535
6275, 6409, 6410, 6537, 6536
6276, 6410, 6411, 6538, 6537
6277, 6411, 6412, 6539, 6538
6278, 6412, 6413, 6540, 6539
6279, 6413, 6414, 6541, 6540
6280, 6414, 6415, 6542, 6541
6281, 6415, 6416, 6543, 6542
6282, 6416, 6417, 6544, 6543
6283, 6417, 6418, 6545, 6544
6284, 6418, 6419, 6546, 6545
6285, 6419, 6420, 6547, 6546
6286, 6420, 6421, 6548, 6547
6287, 6421, 6422, 6549, 6548
6288, 6422, 6423, 6550, 6549
6289, 6423, 6424, 6551, 6550
6290, 6424, 6425, 6552, 6551
6291, 6425, 6426, 6553, 6552
6292, 6426, 6427, 6554, 6553
6293, 6427, 6428, 6555, 6554
6294, 6428, 6429, 6556, 6555
6295, 6429, 6430, 6557, 6556
6296, 6430, 6431, 6558, 6557
6297, 6431, 6432, 6559, 6558
6298, 6432, 6433, 6560, 6559
6299, 6433, 6434, 6561, 6560
6300, 6434, 6435, 6562, 6561
6301, 6435, 6436, 6563, 6562
6302, 6436, 6437, 6564, 6563
6303, 6437, 6438, 6565, 6564
6304, 6438, 6439, 6566, 6565
6305, 6439, 6440, 6567, 6566
6306, 6440, 6441, 6568, 6567
6307, 6441, 6442, 6569, 6568
6308, 6442, 6443, 6570, 6569
6309, 6443, 6444, 6571, 6570
6310, 6444, 6445, 6572, 6571
6311, 6445, 6446, 6573, 6572
6312, 6446, 6447, 6574, 6573
6313, 6447, 6448, 6575, 6574
6314, 6455, 6454, 6576, 6577
6315, 6454, 6456, 6578, 6576
6316, 6456, 6457, 6579, 6578
6317, 6457, 6458, 6580, 6579
6318, 6458, 6459, 6581, 6580
6319, 6459, 6460, 6582, 6581
6320, 6460, 6461, 6583, 6582
6321, 6461, 6462, 6584, 6583
6322, 6462, 6463, 6585, 6584
6323, 6463, 6464, 6586, 6585
6324, 6464, 6465, 6587, 6586
6325, 6465, 6466, 6588, 6587
6326, 6466, 6467, 6589, 6588
6327, 6467, 6468, 6590, 6589
6328, 6468, 6469, 6591, 6590
6329, 6469, 6470, 6592, 6591
6330, 6470, 6471, 6593, 6592
6331, 6471, 6472, 6594, 6593
6332, 6472, 6473, 6595, 6594
6333, 6473, 6474, 6596, 6595
6334, 6474, 6475, 6597, 6596
6335, 6475, 6476, 6598, 6597
6336, 6476, 6477, 6599, 6598
6337, 6477, 6478, 6600, 6599
6338, 6478, 6479, 6601, 6600
6339, 6479, 6480, 6602, 6601
6340, 6480, 6481, 6603, 6602
6341, 6481, 6482, 6604, 6603
6342, 6482, 6483, 6605, 6604
6343, 6483, 6484, 6606, 6605
6344, 6484, 6485, 6607, 6606
6345, 6485, 6486, 6608, 6607
6346, 6486, 6487, 6609, 6608
6347, 6487, 6488, 6610, 6609
6348, 6488, 6489, 6611, 6610
6349, 6489, 6490, 6612, 6611
6350, 6490, 6491, 6613, 6612
6351, 6491, 6492, 6614, 6613
6352, 6492, 6493, 6615, 6614
6353, 6493, 6494, 6616, 6615
6354, 6494, 6495, 6617, 6616
6355, 6495, 6496, 6618, 6617
6356, 6496, 6497, 6619, 6618
6357, 6497, 6498, 6620, 6619
6358, 6498, 6499, 6621, 6620
6359, 6499, 6500, 6622, 6621
6360, 6500, 6501, 6623, 6622
6361, 6501, 6502, 6624, 6623
6362, 6502, 6503, 6625, 6624
6363, 6503, 6504, 6626, 6625
6364, 6504, 6505, 6627, 6626
6365, 6505, 6506, 6628, 6627
6366, 6506, 6507, 6629, 6628
6367, 6507, 6508, 6630, 6629
6368, 6508, 6509, 6631, 6630
6369, 6509, 6510, 6632, 6631
6370, 6510, 6511, 6633, 6632
6371, 6511, 6512, 6634, 6633
6372, 6512, 6513, 6635, 6634
6373, 6513, 6514, 6636, 6635
6374, 6514, 6515, 6637, 6636
6375, 6515, 6516, 6638, 6637
6376, 6516, 6517, 6639, 6638
6377, 6517, 6518, 6640, 6639
6378, 6518, 6519, 6641, 6640
6379, 6519, 6520, 6642, 6641
6380, 6520, 6521, 6643, 6642
6381, 6521, 6522, 6644, 6643
6382, 6522, 6523, 6645, 6644
6383, 6523, 6524, 6646, 6645
6384, 6524, 6525, 6647, 6646
6385, 6525, 6526, 6648, 6647
6386, 6526, 6527, 6649, 6648
6387, 6527, 6528, 6650, 6649
6388, 6528, 6529, 6651, 6650
6389, 6529, 6530, 6652, 6651
6390, 6530, 6531, 6653, 6652
6391, 6531, 6532, 6654, 6653
6392, 6532, 6533, 6655, 6654
6393, 6533, 6534, 6656, 6655
6394, 6534, 6535, 6657, 6656
6395, 6535, 6536, 6658, 6657
6396, 6536, 6537, 6659, 6658
6397, 6537, 6538, 6660, 6659
6398, 6538, 6539, 6661, 6660
6399, 6539, 6540, 6662, 6661
6400, 6540, 6541, 6663, 6662
6401, 6541, 6542, 6664, 6663
6402, 6542, 6543, 6665, 6664
6403, 6543, 6544, 6666, 6665
6404, 6544, 6545, 6667, 6666
6405, 6545, 6546, 6668, 6667
6406, 6546, 6547, 6669, 6668
6407, 6547, 6548, 6670, 6669
6408, 6548, 6549, 6671, 6670
6409, 6549, 6550, 6672, 6671
6410, 6550, 6551, 6673, 6672
6411, 6551, 6552, 6674, 6673
6412, 6552, 6553, 6675, 6674
6413, 6553, 6554, 6676, 6675
6414, 6554, 6555, 6677, 6676
6415, 6555, 6556, 6678, 6677
6416, 6556, 6557, 6679, 6678
6417, 6557, 6558, 6680, 6679
6418, 6558, 6559, 6681, 6680
6419, 6559, 6560, 6682, 6681
6420, 6560, 6561, 6683, 6682
6421, 6561, 6562, 6684, 6683
6422, 6562, 6563, 6685, 6684
6423, 6563, 6564, 6686, 6685
6424, 6564, 6565, 6687, 6686
6425, 6565, 6566, 6688, 6687
6426, 6566, 6567, 6689, 6688
6427, 6567, 6568, 6690, 6689
6428, 6568, 6569, 6691, 6690
6429, 6569, 6570, 6692, 6691
6430, 6570, 6571, 6693, 6692
6431, 6571, 6572, 6694, 6693
6432, 6577, 6576, 6695, 6696
6433, 6576, 6578, 6697, 6695
6434, 6578, 6579, 6698, 6697
6435, 6579, 6580, 6699, 6698
6436, 6580, 6581, 6700, 6699
6437, 6581, 6582, 6701, 6700
6438, 6582, 6583, 6702, 6701
6439, 6583, 6584, 6703, 6702
6440, 6584, 6585, 6704, 6703
6441, 6585, 6586, 6705, 6704
6442, 6586, 6587, 6706, 6705
6443, 6587, 6588, 6707, 6706
6444, 6588, 6589, 6708, 6707
6445, 6589, 6590, 6709, 6708
6446, 6590, 6591, 6710, 6709
6447, 6591, 6592, 6711, 6710
6448, 6592, 6593, 6712, 6711
6449, 6593, 6594, 6713, 6712
6450, 6594, 6595, 6714, 6713
6451, 6595, 6596, 6715, 6714
6452, 6596, 6597, 6716, 6715
6453, 6597, 6598, 6717, 6716
6454, 6598, 6599, 6718, 6717
6455, 6599, 6600, 6719, 6718
6456, 6600, 6601, 6720, 6719
6457, 6601, 6602, 6721, 6720
6458, 6602, 6603, 6722, 6721
6459, 6603, 6604, 6723, 6722
6460, 6604, 6605, 6724, 6723
6461, 6605, 6606, 6725, 6724
6462, 6606, 6607, 6726, 6725
6463, 6607, 6608, 6727, 6726
6464, 6608, 6609, 6728, 6727
6465, 6609, 6610, 6729, 6728
6466, 6610, 6611, 6730, 6729
6467, 6611, 6612, 6731, 6730
6468, 6612, 6613, 6732, 6731
6469, 6613, 6614, 6733, 6732
6470, 6614, 6615, 6734, 6733
6471, 6615, 6616, 6735, 6734
6472, 6616, 6617, 6736, 6735
6473, 6617, 6618, 6737, 6736
6474, 6618, 6619, 6738, 6737
6475, 6619, 6620, 6739, 6738
6476, 6620, 6621, 6740, 6739
6477, 6621, 6622, 6741, 6740
6478, 6622, 6623, 6742, 6741
6479, 6623, 6624, 6743, 6742
6480, 6624, 6625, 6744, 6743
6481, 6625, 6626, 6745, 6744
6482, 6626, 6627, 6746, 6745
6483, 6627, 6628, 6747, 6746
6484, 6628, 6629, 6748, 6747
6485, 6629, 6630, 6749, 6748
6486, 6630, 6631, 6750, 6749
6487, 6631, 6632, 6751, 6750
6488, 6632, 6633, 6752, 6751
6489, 6633, 6634, 6753, 6752
6490, 6634, 6635, 6754, 6753
6491, 6635, 6636, 6755, 6754
6492, 6636, 6637, 6756, 6755
6493, 6637, 6638, 6757, 6756
6494, 6638, 6639, 6758, 6757
6495, 6639, 6640, 6759, 6758
6496, 6640, 6641, 6760, 6759
6497, 6641, 6642, 6761, 6760
6498, 6642, 6643, 6762, 6761
6499, 6643, 6644, 6763, 6762
6500, 6644, 6645, 6764, 6763
6501, 6645, 6646, 6765, 6764
6502, 6646, 6647, 6766, 6765
6503, 6647, 6648, 6767, 6766
6504, 6648, 6649, 6768, 6767
6505, 6649, 6650, 6769, 6768
6506, 6650, 6651, 6770, 6769
6507, 6651, 6652, 6771, 6770
6508, 6652, 6653, 6772, 6771
6509, 6653, 6654, 6773, 6772
6510, 6654, 6655, 6774, 6773
6511, 6655, 6656, 6775, 6774
6512, 6656, 6657, 6776, 6775
6513, 6657, 6658, 6777, 6776
6514, 6658, 6659, 6778, 6777
6515, 6659, 6660, 6779, 6778
6516, 6660, 6661, 6780, 6779
6517, 6661, 6662, 6781, 6780
6518, 6662, 6663, 6782, 6781
6519, 6663, 6664, 6783, 6782
6520, 6664, 6665, 6784, 6783
6521, 6665, 6666, 6785, 6784
6522, 6666, 6667, 6786, 6785
6523, 6667, 6668, 6787, 6786
6524, 6668, 6669, 6788, 6787
6525, 6669, 6670, 6789, 6788
6526, 6670, 6671, 6790, 6789
6527, 6671, 6672, 6791, 6790
6528, 6672, 6673, 6792, 6791
6529, 6673, 6674, 6793, 6792
6530, 6674, 6675, 6794, 6793
6531, 6675, 6676, 6795, 6794
6532, 6676, 6677, 6796, 6795
6533, 6677, 6678, 6797, 6796
6534, 6678, 6679, 6798, 6797
6535, 6679, 6680, 6799, 6798
6536, 6680, 6681, 6800, 6799
6537, 6681, 6682, 6801, 6800
6538, 6682, 6683, 6802, 6801
6539, 6683, 6684, 6803, 6802
6540, 6684, 6685, 6804, 6803
6541, 6685, 6686, 6805, 6804
6542, 6686, 6687, 6806, 6805
6543, 6687, 6688, 6807, 6806
6544, 6688, 6689, 6808, 6807
6545, 6696, 6695, 6809, 6810
6546, 6695, 6697, 6811, 6809
6547, 6697, 6698, 6812, 6811
6548, 6698, 6699, 6813, 6812
6549, 6699, 6700, 6814, 6813
6550, 6700, 6701, 6815, 6814
6551, 6701, 6702, 6816, 6815
6552, 6702, 6703, 6817, 6816
6553, 6703, 6704, 6818, 6817
6554, 6704, 6705, 6819, 6818
6555, 6705, 6706, 6820, 6819
6556, 6706, 6707, 6821, 6820
6557, 6707, 6708, 6822, 6821
6558, 6708, 6709, 6823, 6822
6559, 6709, 6710, 6824, 6823
6560, 6710, 6711, 6825, 6824
6561, 6711, 6712, 6826, 6825
6562, 6712, 6713, 6827, 6826
6563, 6713, 6714, 6828, 6827
6564, 6714, 6715, 6829, 6828
6565, 6715, 6716, 6830, 6829
6566, 6716, 6717, 6831, 6830
6567, 6717, 6718, 6832, 6831
6568, 6718, 6719, 6833, 6832
6569, 6719, 6720, 6834, 6833
6570, 6720, 6721, 6835, 6834
6571, 6721, 6722, 6836, 6835
6572, 6722, 6723, 6837, 6836
6573, 6723, 6724, 6838, 6837
6574, 6724, 6725, 6839, 6838
6575, 6725, 6726, 6840, 6839
6576, 6726, 6727, 6841, 6840
6577, 6727, 6728, 6842, 6841
6578, 6728, 6729, 6843, 6842
6579, 6729, 6730, 6844, 6843
6580, 6730, 6731, 6845, 6844
6581, 6731, 6732, 6846, 6845
6582, 6732, 6733, 6847, 6846
6583, 6733, 6734, 6848, 6847
6584, 6734, 6735, 6849, 6848
6585, 6735, 6736, 6850, 6849
6586, 6736, 6737, 6851, 6850
6587, 6737, 6738, 6852, 6851
6588, 6738, 6739, 6853, 6852
6589, 6739, 6740, 6854, 6853
6590, 6740, 6741, 6855, 6854
6591, 6741, 6742, 6856, 6855
6592, 6742, 6743, 6857, 6856
6593, 6743, 6744, 6858, 6857
6594, 6744, 6745, 6859, 6858
6595, 6745, 6746, 6860, 6859
6596, 6746, 6747, 6861, 6860
6597, 6747, 6748, 6862, 6861
6598, 6748, 6749, 6863, 6862
6599, 6749, 6750, 6864, 6863
6600, 6750, 6751, 6865, 6864
6601, 6751, 6752, 6866, 6865
6602, 6752, 6753, 6867, 6866
6603, 6753, 6754, 6868, 6867
6604, 6754, 6755, 6869, 6868
6605, 6755, 6756, 6870, 6869
6606, 6756, 6757, 6871, 6870
6607, 6757, 6758, 6872, 6871
6608, 6758, 6759, 6873, 6872
6609, 6759, 6760, 6874, 6873
6610, 6760, 6761, 6875, 6874
6611, 6761, 6762, 6876, 6875
6612, 6762, 6763, 6877, 6876
6613, 6763, 6764, 6878, 6877
6614, 6764, 6765, 6879, 6878
6615, 6765, 6766, 6880, 6879
6616, 6766, 6767, 6881, 6880
6617, 6767, 6768, 6882, 6881
6618, 6768, 6769, 6883, 6882
6619, 6769, 6770, 6884, 6883
6620, 6770, 6771, 6885, 6884
6621, 6771, 6772, 6886, 6885
6622, 6772, 6773, 6887, 6886
6623, 6773, 6774, 6888, 6887
6624, 6774, 6775, 6889, 6888
6625, 6775, 6776, 6890, 6889
6626, 6776, 6777, 6891, 6890
6627, 6777, 6778, 6892, 6891
6628, 6778, 6779, 6893, 6892
6629, 6779, 6780, 6894, 6893
6630, 6780, 6781, 6895, 6894
6631, 6781, 6782, 6896, 6895
6632, 6782, 6783, 6897, 6896
6633, 6783, 6784, 6898, 6897
6634, 6784, 6785, 6899, 6898
6635, 6785, 6786, 6900, 6899
6636, 6786, 6787, 6901, 6900
6637, 6787, 6788, 6902, 6901
6638, 6788, 6789, 6903, 6902
6639, 6789, 6790, 6904, 6903
6640, 6790, 6791, 6905, 6904
6641, 6791, 6792, 6906, 6905
6642, 6792, 6793, 6907, 6906
6643, 6793, 6794, 6908, 6907
6644, 6794, 6795, 6909, 6908
6645, 6795, 6796, 6910, 6909
6646, 6796, 6797, 6911, 6910
6647, 6797, 6798, 6912, 6911
6648, 6798, 6799, 6913, 6912
6649, 6799, 6800, 6914, 6913
6650, 6800, 6801, 6915, 6914
6651, 6801, 6802, 6916, 6915
6652, 6802, 6803, 6917, 6916
6653, 6803, 6804, 6918, 6917
6654, 6804, 6805, 6919, 6918
6655, 6810, 6809, 6920, 6921
6656, 6809, 6811, 6922, 6920
6657, 6811, 6812, 6923, 6922
6658, 6812, 6813, 6924, 6923
6659, 6813, 6814, 6925, 6924
6660, 6814, 6815, 6926, 6925
6661, 6815, 6816, 6927, 6926
6662, 6816, 6817, 6928, 6927
6663, 6817, 6818, 6929, 6928
6664, 6818, 6819, 6930, 6929
6665, 6819, 6820, 6931, 6930
6666, 6820, 6821, 6932, 6931
6667, 6821, 6822, 6933, 6932
6668, 6822, 6823, 6934, 6933
6669, 6823, 6824, 6935, 6934
6670, 6824, 6825, 6936, 6935
6671, 6825, 6826, 6937, 6936
6672, 6826, 6827, 6938, 6937
6673, 6827, 6828, 6939, 6938
6674, 6828, 6829, 6940, 6939
6675, 6829, 6830, 6941, 6940
6676, 6830, 6831, 6942, 6941
6677, 6831, 6832, 6943, 6942
6678, 6832, 6833, 6944, 6943
6679, 6833, 6834, 6945, 6944
6680, 6834, 6835, 6946, 6945
6681, 6835, 6836, 6947, 6946
6682, 6836, 6837, 6948, 6947
6683, 6837, 6838, 6949, 6948
6684, 6838, 6839, 6950, 6949
6685, 6839, 6840, 6951, 6950
6686, 6840, 6841, 6952, 6951
6687, 6841, 6842, 6953, 6952
6688, 6842, 6843, 6954, 6953
6689, 6843, 6844, 6955, 6954
6690, 6844, 6845, 6956, 6955
6691, 6845, 6846, 6957, 6956
6692, 6846, 6847, 6958, 6957
6693, 6847, 6848, 6959, 6958
6694, 6848, 6849, 6960, 6959
6695, 6849, 6850, 6961, 6960
6696, 6850, 6851, 6962, 6961
6697, 6851, 6852, 6963, 6962
6698, 6852, 6853, 6964, 6963
6699, 6853, 6854, 6965, 6964
6700, 6854, 6855, 6966, 6965
6701, 6855, 6856, 6967, 6966
6702, 6856, 6857, 6968, 6967
6703, 6857, 6858, 6969, 6968
6704, 6858, 6859, 6970, 6969
6705, 6859, 6860, 6971, 6970
6706, 6860, 6861, 6972, 6971
6707, 6861, 6862, 6973, 6972
6708, 6862, 6863, 6974, 6973
6709, 6863, 6864, 6975, 6974
6710, 6864, 6865, 6976, 6975
6711, 6865, 6866, 6977, 6976
6712, 6866, 6867, 6978, 6977
6713, 6867, 6868, 6979, 6978
6714, 6868, 6869, 6980, 6979
6715, 6869, 6870, 6981, 6980
6716, 6870, 6871, 6982, 6981
6717, 6871, 6872, 6983, 6982
6718, 6872, 6873, 6984, 6983
6719, 6873, 6874, 6985, 6984
6720, 6874, 6875, 6986, 6985
6721, 6875, 6876, 6987, 6986
6722, 6876, 6877, 6988, 6987
6723, 6877, 6878, 6989, 6988
6724, 6878, 6879, 6990, 6989
6725, 6879, 6880, 6991, 6990
6726, 6880, 6881, 6992, 6991
6727, 6881, 6882, 6993, 6992
6728, 6882, 6883, 6994, 6993
6729, 6883, 6884, 6995, 6994
6730, 6884, 6885, 6996, 6995
6731, 6885, 6886, 6997, 6996
6732, 6886, 6887, 6998, 6997
6733, 6887, 6888, 6999, 6998
6734, 6888, 6889, 7000, 6999
6735, 6889, 6890, 7001, 7000
6736, 6890, 6891, 7002, 7001
6737, 6891, 6892, 7003, 7002
6738, 6892, 6893, 7004, 7003
6739, 6893, 6894, 7005, 7004
6740, 6894, 6895, 7006, 7005
6741, 6895, 6896, 7007, 7006
6742, 6896, 6897, 7008, 7007
6743, 6897, 6898, 7009, 7008
6744, 6898, 6899, 7010, 7009
6745, 6899, 6900, 7011, 7010
6746, 6900, 6901, 7012, 7011
6747, 6901, 6902, 7013, 7012
6748, 6902, 6903, 7014, 7013
6749, 6903, 6904, 7015, 7014
6750, 6904, 6905, 7016, 7015
6751, 6905, 6906, 7017, 7016
6752, 6906, 6907, 7018, 7017
6753, 6907, 6908, 7019, 7018
6754, 6908, 6909, 7020, 7019
6755, 6909, 6910, 7021, 7020
6756, 6910, 6911, 7022, 7021
6757, 6911, 6912, 7023, 7022
6758, 6912, 6913, 7024, 7023
6759, 6913, 6914, 7025, 7024
6760, 6914, 6915, 7026, 7025
6761, 6921, 6920, 7027, 7028
6762, 6920, 6922, 7029, 7027
6763, 6922, 6923, 7030, 7029
6764, 6923, 6924, 7031, 7030
6765, 6924, 6925, 7032, 7031
6766, 6925, 6926, 7033, 7032
6767, 6926, 6927, 7034, 7033
6768, 6927, 6928, 7035, 7034
6769, 6928, 6929, 7036, 7035
6770, 6929, 6930, 7037, 7036
6771, 6930, 6931, 7038, 7037
6772, 6931, 6932, 7039, 7038
6773, 6932, 6933, 7040, 7039
6774, 6933, 6934, 7041, 7040
6775, 6934, 6935, 7042, 7041
6776, 6935, 6936, 7043, 7042
6777, 6936, 6937, 7044, 7043
6778, 6937, 6938, 7045, 7044
6779, 6938, 6939, 7046, 7045
6780, 6939, 6940, 7047, 7046
6781, 6940, 6941, 7048, 7047
6782, 6941, 6942, 7049, 7048
6783, 6942, 6943, 7050, 7049
6784, 6943, 6944, 7051, 7050
6785, 6944, 6945, 7052, 7051
6786, 6945, 6946, 7053, 7052
6787, 6946, 6947, 7054, 7053
6788, 6947, 6948, 7055, 7054
6789, 6948, 6949, 7056, 7055
6790, 6949, 6950, 7057, 7056
6791, 6950, 6951, 7058, 7057
6792, 6951, 6952, 7059, 7058
6793, 6952, 6953, 7060, 7059
6794, 6953, 6954, 7061, 7060
6795, 6954, 6955, 7062, 7061
6796, 6955, 6956, 7063, 7062
6797, 6956, 6957, 7064, 7063
6798, 6957, 6958, 7065, 7064
6799, 6958, 6959, 7066, 7065
6800, 6959, 6960, 7067, 7066
6801, 6960, 6961, 7068, 7067
6802, 6961, 6962, 7069, 7068
6803, 6962, 6963, 7070, 7069
6804, 6963, 6964, 7071, 7070
6805, 6964, 6965, 7072, 7071
6806, 6965, 6966, 7073, 7072
6807, 6966, 6967, 7074, 7073
6808, 6967, 6968, 7075, 7074
6809, 6968, 6969, 7076, 7075
6810, 6969, 6970, 7077, 7076
6811, 6970, 6971, 7078, 7077
6812, 6971, 6972, 7079, 7078
6813, 6972, 6973, 7080, 7079
6814, 6973, 6974, 7081, 7080
6815, 6974, 6975, 7082, 7081
6816, 6975, 6976, 7083, 7082
6817, 6976, 6977, 7084, 7083
6818, 6977, 6978, 7085, 7084
6819, 6978, 6979, 7086, 7085
6820, 6979, 6980, 7087, 7086
6821, 6980, 6981, 7088, 7087
6822, 6981, 6982, 7089, 7088
6823, 6982, 6983, 7090, 7089
6824, 6983, 6984, 7091, 7090
6825, 6984, 6985, 7092, 7091
6826, 6985, 6986, 7093, 7092
6827, 6986, 6987, 7094, 7093
6828, 6987, 6988, 7095, 7094
6829, 6988, 6989, 7096, 7095
6830, 6989, 6990, 7097, 7096
6831, 6990, 6991, 7098, 7097
6832, 6991, 6992, 7099, 7098
6833, 6992, 6993, 7100, 7099
6834, 6993, 6994, 7101, 7100
6835, 6994, 6995, 7102, 7101
6836, 6995, 6996, 7103, 7102
6837, 6996, 6997, 7104, 7103
6838, 6997, 6998, 7105, 7104
6839, 6998, 6999, 7106, 7105
6840, 6999, 7000, 7107, 7106
6841, 7000, 7001, 7108, 7107
6842, 7001, 7002, 7109, 7108
6843, 7002, 7003, 7110, 7109
6844, 7003, 7004, 7111, 7110
6845, 7004, 7005, 7112, 7111
6846, 7005, 7006, 7113, 7112
6847, 7006, 7007, 7114, 7113
6848, 7007, 7008, 7115, 7114
6849, 7008, 7009, 7116, 7115
6850, 7009, 7010, 7117, 7116
6851, 7010, 7011, 7118, 7117
6852, 7011, 7012, 7119, 7118
6853, 7012, 7013, 7120, 7119
6854, 7013, 7014, 7121, 7120
6855, 7014, 7015, 7122, 7121
6856, 7015, 7016, 7123, 7122
6857, 7016, 7017, 7124, 7123
6858, 7017, 7018, 7125, 7124
6859, 7018, 7019, 7126, 7125
6860, 7019, 7020, 7127, 7126
6861, 7020, 7021, 7128, 7127
6862, 7028, 7027, 7129, 7130
6863, 7027, 7029, 7131, 7129
6864, 7029, 7030, 7132, 7131
6865, 7030, 7031, 7133, 7132
6866, 7031, 7032, 7134, 7133
6867, 7032, 7033, 7135, 7134
6868, 7033, 7034, 7136, 7135
6869, 7034, 7035, 7137, 7136
6870, 7035, 7036, 7138, 7137
6871, 7036, 7037, 7139, 7138
6872, 7037, 7038, 7140, 7139
6873, 7038, 7039, 7141, 7140
6874, 7039, 7040, 7142, 7141
6875, 7040, 7041, 7143, 7142
6876, 7041, 7042, 7144, 7143
6877, 7042, 7043, 7145, 7144
6878, 7043, 7044, 7146, 7145
6879, 7044, 7045, 7147, 7146
6880, 7045, 7046, 7148, 7147
6881, 7046, 7047, 7149, 7148
6882, 7047, 7048, 7150, 7149
6883, 7048, 7049, 7151, 7150
6884, 7049, 7050, 7152, 7151
6885, 7050, 7051, 7153, 7152
6886, 7051, 7052, 7154, 7153
6887, 7052, 7053, 7155, 7154
6888, 7053, 7054, 7156, 7155
6889, 7054, 7055, 7157, 7156
6890, 7055, 7056, 7158, 7157
6891, 7056, 7057, 7159, 7158
6892, 7057, 7058, 7160, 7159
6893, 7058, 7059, 7161, 7160
6894, 7059, 7060, 7162, 7161
6895, 7060, 7061, 7163, 7162
6896, 7061, 7062, 7164, 7163
6897, 7062, 7063, 7165, 7164
6898, 7063, 7064, 7166, 7165
6899, 7064, 7065, 7167, 7166
6900, 7065, 7066, 7168, 7167
6901, 7066, 7067, 7169, 7168
6902, 7067, 7068, 7170, 7169
6903, 7068, 7069, 7171, 7170
6904, 7069, 7070, 7172, 7171
6905, 7070, 7071, 7173, 7172
6906, 7071, 7072, 7174, 7173
6907, 7072, 7073, 7175, 7174
6908, 7073, 7074, 7176, 7175
6909, 7074, 7075, 7177, 7176
6910, 7075, 7076, 7178, 7177
6911, 7076, 7077, 7179, 7178
6912, 7077, 7078, 7180, 7179
6913, 7078, 7079, 7181, 7180
6914, 7079, 7080, 7182, 7181
6915, 7080, 7081, 7183, 7182
6916, 7081, 7082, 7184, 7183
6917, 7082, 7083, 7185, 7184
6918, 7083, 7084, 7186, 7185
6919, 7084, 7085, 7187, 7186
6920, 7085, 7086, 7188, 7187
6921, 7086, 7087, 7189, 7188
6922, 7087, 7088, 7190, 7189
6923, 7088, 7089, 7191, 7190
6924, 7089, 7090, 7192, 7191
6925, 7090, 7091, 7193, 7192
6926, 7091, 7092, 7194, 7193
6927, 7092, 7093, 7195, 7194
6928, 7093, 7094, 7196, 7195
6929, 7094, 7095, 7197, 7196
6930, 7095, 7096, 7198, 7197
6931, 7096, 7097, 7199, 7198
6932, 7097, 7098, 7200, 7199
6933, 7098, 7099, 7201, 7200
6934, 7099, 7100, 7202, 7201
6935, 7100, 7101, 7203, 7202
6936, 7101, 7102, 7204, 7203
6937, 7102, 7103, 7205, 7204
6938, 7103, 7104, 7206, 7205
6939, 7104, 7105, 7207, 7206
6940, 7105, 7106, 7208, 7207
6941, 7106, 7107, 7209, 7208
6942, 7107, 7108, 7210, 7209
6943, 7108, 7109, 7211, 7210
6944, 7109, 7110, 7212, 7211
6945, 7110, 7111, 7213, 7212
6946, 7111, 7112, 7214, 7213
6947, 7112, 7113, 7215, 7214
6948, 7113, 7114, 7216, 7215
6949, 7114, 7115, 7217, 7216
6950, 7115, 7116, 7218, 7217
6951, 7116, 7117, 7219, 7218
6952, 7117, 7118, 7220, 7219
6953, 7118, 7119, 7221, 7220
6954, 7119, 7120, 7222, 7221
6955, 7120, 7121, 7223, 7222
6956, 7121, 7122, 7224, 7223
6957, 7122, 7123, 7225, 7224
6958, 7123, 7124, 7226, 7225
6959, 7124, 7125, 7227, 7226
6960, 7130, 7129, 7228, 7229
6961, 7129, 7131, 7230, 7228
6962, 7131, 7132, 7231, 7230
6963, 7132, 7133, 7232, 7231
6964, 7133, 7134, 7233, 7232
6965, 7134, 7135, 7234, 7233
6966, 7135, 7136, 7235, 7234
6967, 7136, 7137, 7236, 7235
6968, 7137, 7138, 7237, 7236
6969, 7138, 7139, 7238, 7237
6970, 7139, 7140, 7239, 7238
6971, 7140, 7141, 7240, 7239
6972, 7141, 7142, 7241, 7240
6973, 7142, 7143, 7242, 7241
6974, 7143, 7144, 7243, 7242
6975, 7144, 7145, 7244, 7243
6976, 7145, 7146, 7245, 7244
6977, 7146, 7147, 7246, 7245
6978, 7147, 7148, 7247, 7246
6979, 7148, 7149, 7248, 7247
6980, 7149, 7150, 7249, 7248
6981, 7150, 7151, 7250, 7249
6982, 7151, 7152, 7251, 7250
6983, 7152, 7153, 7252, 7251
6984, 7153, 7154, 7253, 7252
6985, 7154, 7155, 7254, 7253
6986, 7155, 7156, 7255, 7254
6987, 7156, 7157, 7256, 7255
6988, 7157, 7158, 7257, 7256
6989, 7158, 7159, 7258, 7257
6990, 7159, 7160, 7259, 7258
6991, 7160, 7161, 7260, 7259
6992, 7161, 7162, 7261, 7260
6993, 7162, 7163, 7262, 7261
6994, 7163, 7164, 7263, 7262
6995, 7164, 7165, 7264, 7263
6996, 7165, 7166, 7265, 7264
6997, 7166, 7167, 7266, 7265
6998, 7167, 7168, 7267, 7266
6999, 7168, 7169, 7268, 7267
7000, 7169, 7170, 7269, 7268
7001, 7170, 7171, 7270, 7269
7002, 7171, 7172, 7271, 7270
7003, 7172, 7173, 7272, 7271
7004, 7173, 7174, 7273, 7272
7005, 7174, 7175, 7274, 7273
7006, 7175, 7176, 7275, 7274
7007, 7176, 7177, 7276, 7275
7008, 7177, 7178, 7277, 7276
7009, 7178, 7179, 7278, 7277
7010, 7179, 7180, 7279, 7278
7011, 7180, 7181, 7280, 7279
7012, 7181, 7182, 7281, 7280
7013, 7182, 7183, 7282, 7281
7014, 7183, 7184, 7283, 7282
7015, 7184, 7185, 7284, 7283
7016, 7185, 7186, 7285, 7284
7017, 7186, 7187, 7286, 7285
7018, 7187, 7188, 7287, 7286
7019, 7188, 7189, 7288, 7287
7020, 7189, 7190, 7289, 7288
7021, 7190, 7191, 7290, 7289
7022, 7191, 7192, 7291, 7290
7023, 7192, 7193, 7292, 7291
7024, 7193, 7194, 7293, 7292
7025, 7194, 7195, 7294, 7293
7026, 7195, 7196, 7295, 7294
7027, 7196, 7197, 7296, 7295
7028, 7197, 7198, 7297, 7296
7029, 7198, 7199, 7298, 7297
7030, 7199, 7200, 7299, 7298
7031, 7200, 7201, 7300, 7299
7032, 7201, 7202, 7301, 7300
7033, 7202, 7203, 7302, 7301
7034, 7203, 7204, 7303, 7302
7035, 7204, 7205, 7304, 7303
7036, 7205, 7206, 7305, 7304
7037, 7206, 7207, 7306, 7305
7038, 7207, 7208, 7307, 7306
7039, 7208, 7209, 7308, 7307
7040, 7209, 7210, 7309, 7308
7041, 7210, 7211, 7310, 7309
7042, 7211, 7212, 7311, 7310
7043, 7212, 7213, 7312, 7311
7044, 7213, 7214, 7313, 7312
7045, 7214, 7215, 7314, 7313
7046, 7215, 7216, 7315, 7314
7047, 7216, 7217, 7316, 7315
7048, 7217, 7218, 7317, 7316
7049, 7218, 7219, 7318, 7317
7050, 7219, 7220, 7319, 7318
7051, 7220, 7221, 7320, 7319
7052, 7221, 7222, 7321, 7320
7053, 7222, 7223, 7322, 7321
7054, 7229, 7228, 7323, 7324
7055, 7228, 7230, 7325, 7323
7056, 7230, 7231, 7326, 7325
7057, 7231, 7232, 7327, 7326
7058, 7232, 7233, 7328, 7327
7059, 7233, 7234, 7329, 7328
7060, 7234, 7235, 7330, 7329
7061, 7235, 7236, 7331, 7330
7062, 7236, 7237, 7332, 7331
7063, 7237, 7238, 7333, 7332
7064, 7238, 7239, 7334, 7333
7065, 7239, 7240, 7335, 7334
7066, 7240, 7241, 7336, 7335
7067, 7241, 7242, 7337, 7336
7068, 7242, 7243, 7338, 7337
7069, 7243, 7244, 7339, 7338
7070, 7244, 7245, 7340, 7339
7071, 7245, 7246, 7341, 7340
7072, 7246, 7247, 7342, 7341
7073, 7247, 7248, 7343, 7342
7074, 7248, 7249, 7344, 7343
7075, 7249, 7250, 7345, 7344
7076, 7250, 7251, 7346, 7345
7077, 7251, 7252, 7347, 7346
7078, 7252, 7253, 7348, 7347
7079, 7253, 7254, 7349, 7348
7080, 7254, 7255, 7350, 7349
7081, 7255, 7256, 7351, 7350
7082, 7256, 7257, 7352, 7351
7083, 7257, 7258, 7353, 7352
7084, 7258, 7259, 7354, 7353
7085, 7259, 7260, 7355, 7354
7086, 7260, 7261, 7356, 7355
7087, 7261, 7262, 7357, 7356
7088, 7262, 7263, 7358, 7357
7089, 7263, 7264, 7359, 7358
7090, 7264, 7265, 7360, 7359
7091, 7265, 7266, 7361, 7360
7092, 7266, 7267, 7362, 7361
7093, 7267, 7268, 7363, 7362
7094, 7268, 7269, 7364, 7363
7095, 7269, 7270, 7365, 7364
7096, 7270, 7271, 7366, 7365
7097, 7271, 7272, 7367, 7366
7098, 7272, 7273, 7368, 7367
7099, 7273, 7274, 7369, 7368
7100, 7274, 7275, 7370, 7369
7101, 7275, 7276, 7371, 7370
7102, 7276, 7277, 7372, 7371
7103, 7277, 7278, 7373, 7372
7104, 7278, 7279, 7374, 7373
7105, 7279, 7280, 7375, 7374
7106, 7280, 7281, 7376, 7375
7107, 7281, 7282, 7377, 7376
7108, 7282, 7283, 7378, 7377
7109, 7283, 7284, 7379, 7378
7110, 7284, 7285, 7380, 7379
7111, 7285, 7286, 7381, 7380
7112, 7286, 7287, 7382, 7381
7113, 7287, 7288, 7383, 7382
7114, 7288, 7289, 7384, 7383
7115, 7289, 7290, 7385, 7384
7116, 7290, 7291, 7386, 7385
7117, 7291, 7292, 7387, 7386
7118, 7292, 7293, 7388, 7387
7119, 7293, 7294, 7389, 7388
7120, 7294, 7295, 7390, 7389
7121, 7295, 7296, 7391, 7390
7122, 7296, 7297, 7392, 7391
7123, 7297, 7298, 7393, 7392
7124, 7298, 7299, 7394, 7393
7125, 7299, 7300, 7395, 7394
7126, 7300, 7301, 7396, 7395
7127, 7301, 7302, 7397, 7396
7128, 7302, 7303, 7398, 7397
7129, 7303, 7304, 7399, 7398
7130, 7304, 7305, 7400, 7399
7131, 7305, 7306, 7401, 7400
7132, 7306, 7307, 7402, 7401
7133, 7307, 7308, 7403, 7402
7134, 7308, 7309, 7404, 7403
7135, 7309, 7310, 7405, 7404
7136, 7310, 7311, 7406, 7405
7137, 7311, 7312, 7407, 7406
7138, 7312, 7313, 7408, 7407
7139, 7313, 7314, 7409, 7408
7140, 7314, 7315, 7410, 7409
7141, 7315, 7316, 7411, 7410
7142, 7324, 7323, 7412, 7413
7143, 7323, 7325, 7414, 7412
7144, 7325, 7326, 7415, 7414
7145, 7326, 7327, 7416, 7415
7146, 7327, 7328, 7417, 7416
7147, 7328, 7329, 7418, 7417
7148, 7329, 7330, 7419, 7418
7149, 7330, 7331, 7420, 7419
7150, 7331, 7332, 7421, 7420
7151, 7332, 7333, 7422, 7421
7152, 7333, 7334, 7423, 7422
7153, 7334, 7335, 7424, 7423
7154, 7335, 7336, 7425, 7424
7155, 7336, 7337, 7426, 7425
7156, 7337, 7338, 7427, 7426
7157, 7338, 7339, 7428, 7427
7158, 7339, 7340, 7429, 7428
7159, 7340, 7341, 7430, 7429
7160, 7341, 7342, 7431, 7430
7161, 7342, 7343, 7432, 7431
7162, 7343, 7344, 7433, 7432
7163, 7344, 7345, 7434, 7433
7164, 7345, 7346, 7435, 7434
7165, 7346, 7347, 7436, 7435
7166, 7347, 7348, 7437, 7436
7167, 7348, 7349, 7438, 7437
7168, 7349, 7350, 7439, 7438
7169, 7350, 7351, 7440, 7439
7170, 7351, 7352, 7441, 7440
7171, 7352, 7353, 7442, 7441
7172, 7353, 7354, 7443, 7442
7173, 7354, 7355, 7444, 7443
7174, 7355, 7356, 7445, 7444
7175, 7356, 7357, 7446, 7445
7176, 7357, 7358, 7447, 7446
7177, 7358, 7359, 7448, 7447
7178, 7359, 7360, 7449, 7448
7179, 7360, 7361, 7450, 7449
7180, 7361, 7362, 7451, 7450
7181, 7362, 7363, 7452, 7451
7182, 7363, 7364, 7453, 7452
7183, 7364, 7365, 7454, 7453
7184, 7365, 7366, 7455, 7454
7185, 7366, 7367, 7456, 7455
7186, 7367, 7368, 7457, 7456
7187, 7368, 7369, 7458, 7457
7188, 7369, 7370, 7459, 7458
7189, 7370, 7371, 7460, 7459
7190, 7371, 7372, 7461, 7460
7191, 7372, 7373, 7462, 7461
7192, 7373, 7374, 7463, 7462
7193, 7374, 7375, 7464, 7463
7194, 7375, 7376, 7465, 7464
7195, 7376, 7377, 7466, 7465
7196, 7377, 7378, 7467, 7466
7197, 7378, 7379, 7468, 7467
7198, 7379, 7380, 7469, 7468
7199, 7380, 7381, 7470, 7469
7200, 7381, 7382, 7471, 7470
7201, 7382, 7383, 7472, 7471
7202, 7383, 7384, 7473, 7472
7203, 7384, 7385, 7474, 7473
7204, 7385, 7386, 7475, 7474
7205, 7386, 7387, 7476, 7475
7206, 7387, 7388, 7477, 7476
7207, 7388, 7389, 7478, 7477
7208, 7389, 7390, 7479, 7478
7209, 7390, 7391, 7480, 7479
7210, 7391, 7392, 7481, 7480
7211, 7392, 7393, 7482, 7481
7212, 7393, 7394, 7483, 7482
7213, 7394, 7395, 7484, 7483
7214, 7395, 7396, 7485, 7484
7215, 7396, 7397, 7486, 7485
7216, 7397, 7398, 7487, 7486
7217, 7398, 7399, 7488, 7487
7218, 7399, 7400, 7489, 7488
7219, 7400, 7401, 7490, 7489
7220, 7401, 7402, 7491, 7490
7221, 7402, 7403, 7492, 7491
7222, 7403, 7404, 7493, 7492
7223, 7404, 7405, 7494, 7493
7224, 7405, 7406, 7495, 7494
7225, 7406, 7407, 7496, 7495
7226, 7407, 7408, 7497, 7496
7227, 7413, 7412, 7498, 7499
7228, 7412, 7414, 7500, 7498
7229, 7414, 7415, 7501, 7500
7230, 7415, 7416, 7502, 7501
7231, 7416, 7417, 7503, 7502
7232, 7417, 7418, 7504, 7503
7233, 7418, 7419, 7505, 7504
7234, 7419, 7420, 7506, 7505
7235, 7420, 7421, 7507, 7506
7236, 7421, 7422, 7508, 7507
7237, 7422, 7423, 7509, 7508
7238, 7423, 7424, 7510, 7509
7239, 7424, 7425, 7511, 7510
7240, 7425, 7426, 7512, 7511
7241, 7426, 7427, 7513, 7512
7242, 7427, 7428, 7514, 7513
7243, 7428, 7429, 7515, 7514
7244, 7429, 7430, 7516, 7515
7245, 7430, 7431, 7517, 7516
7246, 7431, 7432, 7518, 7517
7247, 7432, 7433, 7519, 7518
7248, 7433, 7434, 7520, 7519
7249, 7434, 7435, 7521, 7520
7250, 7435, 7436, 7522, 7521
7251, 7436, 7437, 7523, 7522
7252, 7437, 7438, 7524, 7523
7253, 7438, 7439, 7525, 7524
7254, 7439, 7440, 7526, 7525
7255, 7440, 7441, 7527, 7526
7256, 7441, 7442, 7528, 7527
7257, 7442, 7443, 7529, 7528
7258, 7443, 7444, 7530, 7529
7259, 7444, 7445, 7531, 7530
7260, 7445, 7446, 7532, 7531
7261, 7446, 7447, 7533, 7532
7262, 7447, 7448, 7534, 7533
7263, 7448, 7449, 7535, 7534
7264, 7449, 7450, 7536, 7535
7265, 7450, 7451, 7537, 7536
7266, 7451, 7452, 7538, 7537
7267, 7452, 7453, 7539, 7538
7268, 7453, 7454, 7540, 7539
7269, 7454, 7455, 7541, 7540
7270, 7455, 7456, 7542, 7541
7271, 7456, 7457, 7543, 7542
7272, 7457, 7458, 7544, 7543
7273, 7458, 7459, 7545, 7544
7274, 7459, 7460, 7546, 7545
7275, 7460, 7461, 7547, 7546
7276, 7461, 7462, 7548, 7547
7277, 7462, 7463, 7549, 7548
7278, 7463, 7464, 7550, 7549
7279, 7464, 7465, 7551, 7550
7280, 7465, 7466, 7552, 7551
7281, 7466, 7467, 7553, 7552
7282, 7467, 7468, 7554, 7553
7283, 7468, 7469, 7555, 7554
7284, 7469, 7470, 7556, 7555
7285, 7470, 7471, 7557, 7556
7286, 7471, 7472, 7558, 7557
7287, 7472, 7473, 7559, 7558
7288, 7473, 7474, 7560, 7559
7289, 7474, 7475, 7561, 7560
7290, 7475, 7476, 7562, 7561
7291, 7476, 7477, 7563, 7562
7292, 7477, 7478, 7564, 7563
7293, 7478, 7479, 7565, 7564
7294, 7479, 7480, 7566, 7565
7295, 7480, 7481, 7567, 7566
7296, 7481, 7482, 7568, 7567
7297, 7482, 7483, 7569, 7568
7298, 7483, 7484, 7570, 7569
7299, 7484, 7485, 7571, 7570
7300, 7485, 7486, 7572, 7571
7301, 7486, 7487, 7573, 7572
7302, 7487, 7488, 7574, 7573
7303, 7488, 7489, 7575, 7574
7304, 7489, 7490, 7576, 7575
7305, 7490, 7491, 7577, 7576
7306, 7491, 7492, 7578, 7577
7307, 7499, 7498, 7579, 7580
7308, 7498, 7500, 7581, 7579
7309, 7500, 7501, 7582, 7581
7310, 7501, 7502, 7583, 7582
7311, 7502, 7503, 7584, 7583
7312, 7503, 7504, 7585, 7584
7313, 7504, 7505, 7586, 7585
7314, 7505, 7506, 7587, 7586
7315, 7506, 7507, 7588, 7587
7316, 7507, 7508, 7589, 7588
7317, 7508, 7509, 7590, 7589
7318, 7509, 7510, 7591, 7590
7319, 7510, 7511, 7592, 7591
7320, 7511, 7512, 7593, 7592
7321, 7512, 7513, 7594, 7593
7322, 7513, 7514, 7595, 7594
7323, 7514, 7515, 7596, 7595
7324, 7515, 7516, 7597, 7596
7325, 7516, 7517, 7598, 7597
7326, 7517, 7518, 7599, 7598
7327, 7518, 7519, 7600, 7599
7328, 7519, 7520, 7601, 7600
7329, 7520, 7521, 7602, 7601
7330, 7521, 7522, 7603, 7602
7331, 7522, 7523, 7604, 7603
7332, 7523, 7524, 7605, 7604
7333, 7524, 7525, 7606, 7605
7334, 7525, 7526, 7607, 7606
7335, 7526, 7527, 7608, 7607
7336, 7527, 7528, 7609, 7608
7337, 7528, 7529, 7610, 7609
7338, 7529, 7530, 7611, 7610
7339, 7530, 7531, 7612, 7611
7340, 7531, 7532, 7613, 7612
7341, 7532, 7533, 7614, 7613
7342, 7533, 7534, 7615, 7614
7343, 7534, 7535, 7616, 7615
7344, 7535, 7536, 7617, 7616
7345, 7536, 7537, 7618, 7617
7346, 7537, 7538, 7619, 7618
7347, 7538, 7539, 7620, 7619
7348, 7539, 7540, 7621, 7620
7349, 7540, 7541, 7622, 7621
7350, 7541, 7542, 7623, 7622
7351, 7542, 7543, 7624, 7623
7352, 7543, 7544, 7625, 7624
7353, 7544, 7545, 7626, 7625
7354, 7545, 7546, 7627, 7626
7355, 7546, 7547, 7628, 7627
7356, 7547, 7548, 7629, 7628
7357, 7548, 7549, 7630, 7629
7358, 7549, 7550, 7631, 7630
7359, 7550, 7551, 7632, 7631
7360, 7551, 7552, 7633, 7632
7361, 7552, 7553, 7634, 7633
7362, 7553, 7554, 7635, 7634
7363, 7554, 7555, 7636, 7635
7364, 7555, 7556, 7637, 7636
7365, 7556, 7557, 7638, 7637
7366, 7557, 7558, 7639, 7638
7367, 7558, 7559, 7640, 7639
7368, 7559, 7560, 7641, 7640
7369, 7560, 7561, 7642, 7641
7370, 7561, 7562, 7643, 7642
7371, 7562, 7563, 7644, 7643
7372, 7563, 7564, 7645, 7644
7373, 7564, 7565, 7646, 7645
7374, 7565, 7566, 7647, 7646
7375, 7566, 7567, 7648, 7647
7376, 7567, 7568, 7649, 7648
7377, 7568, 7569, 7650, 7649
7378, 7569, 7570, 7651, 7650
7379, 7570, 7571, 7652, 7651
7380, 7571, 7572, 7653, 7652
7381, 7572, 7573, 7654, 7653
7382, 7573, 7574, 7655, 7654
7383, 7580, 7579, 7656, 7657
7384, 7579, 7581, 7658, 7656
7385, 7581, 7582, 7659, 7658
7386, 7582, 7583, 7660, 7659
7387, 7583, 7584, 7661, 7660
7388, 7584, 7585, 7662, 7661
7389, 7585, 7586, 7663, 7662
7390, 7586, 7587, 7664, 7663
7391, 7587, 7588, 7665, 7664
7392, 7588, 7589, 7666, 7665
7393, 7589, 7590, 7667, 7666
7394, 7590, 7591, 7668, 7667
7395, 7591, 7592, 7669, 7668
7396, 7592, 7593, 7670, 7669
7397, 7593, 7594, 7671, 7670
7398, 7594, 7595, 7672, 7671
7399, 7595, 7596, 7673, 7672
7400, 7596, 7597, 7674, 7673
7401, 7597, 7598, 7675, 7674
7402, 7598, 7599, 7676, 7675
7403, 7599, 7600, 7677, 7676
7404, 7600, 7601, 7678, 7677
7405, 7601, 7602, 7679, 7678
7406, 7602, 7603, 7680, 7679
7407, 7603, 7604, 7681, 7680
7408, 7604, 7605, 7682, 7681
7409, 7605, 7606, 7683, 7682
7410, 7606, 7607, 7684, 7683
7411, 7607, 7608, 7685, 7684
7412, 7608, 7609, 7686, 7685
7413, 7609, 7610, 7687, 7686
7414, 7610, 7611, 7688, 7687
7415, 7611, 7612, 7689, 7688
7416, 7612, 7613, 7690, 7689
7417, 7613, 7614, 7691, 7690
7418, 7614, 7615, 7692, 7691
7419, 7615, 7616, 7693, 7692
7420, 7616, 7617, 7694, 7693
7421, 7617, 7618, 7695, 7694
7422, 7618, 7619, 7696, 7695
7423, 7619, 7620, 7697, 7696
7424, 7620, 7621, 7698, 7697
7425, 7621, 7622, 7699, 7698
7426, 7622, 7623, 7700, 7699
7427, 7623, 7624, 7701, 7700
7428, 7624, 7625, 7702, 7701
7429, 7625, 7626, 7703, 7702
7430, 7626, 7627, 7704, 7703
7431, 7627, 7628, 7705, 7704
7432, 7628, 7629, 7706, 7705
7433, 7629, 7630, 7707, 7706
7434, 7630, 7631, 7708, 7707
7435, 7631, 7632, 7709, 7708
7436, 7632, 7633, 7710, 7709
7437, 7633, 7634, 7711, 7710
7438, 7634, 7635, 7712, 7711
7439, 7635, 7636, 7713, 7712
7440, 7636, 7637, 7714, 7713
7441, 7637, 7638, 7715, 7714
7442, 7638, 7639, 7716, 7715
7443, 7639, 7640, 7717, 7716
7444, 7640, 7641, 7718, 7717
7445, 7641, 7642, 7719, 7718
7446, 7642, 7643, 7720, 7719
7447, 7643, 7644, 7721, 7720
7448, 7644, 7645, 7722, 7721
7449, 7645, 7646, 7723, 7722
7450, 7646, 7647, 7724, 7723
7451, 7647, 7648, 7725, 7724
7452, 7648, 7649, 7726, 7725
7453, 7649, 7650, 7727, 7726
7454, 7657, 7656, 7728, 7729
7455, 7656, 7658, 7730, 7728
7456, 7658, 7659, 7731, 7730
7457, 7659, 7660, 7732, 7731
7458, 7660, 7661, 7733, 7732
7459, 7661, 7662, 7734, 7733
7460, 7662, 7663, 7735, 7734
7461, 7663, 7664, 7736, 7735
7462, 7664, 7665, 7737, 7736
7463, 7665, 7666, 7738, 7737
7464, 7666, 7667, 7739, 7738
7465, 7667, 7668, 7740, 7739
7466, 7668, 7669, 7741, 7740
7467, 7669, 7670, 7742, 7741
7468, 7670, 7671, 7743, 7742
7469, 7671, 7672, 7744, 7743
7470, 7672, 7673, 7745, 7744
7471, 7673, 7674, 7746, 7745
7472, 7674, 7675, 7747, 7746
7473, 7675, 7676, 7748, 7747
7474, 7676, 7677, 7749, 7748
7475, 7677, 7678, 7750, 7749
7476, 7678, 7679, 7751, 7750
7477, 7679, 7680, 7752, 7751
7478, 7680, 7681, 7753, 7752
7479, 7681, 7682, 7754, 7753
7480, 7682, 7683, 7755, 7754
7481, 7683, 7684, 7756, 7755
7482, 7684, 7685, 7757, 7756
7483, 7685, 7686, 7758, 7757
7484, 7686, 7687, 7759, 7758
7485, 7687, 7688, 7760, 7759
7486, 7688, 7689, 7761, 7760
7487, 7689, 7690, 7762, 7761
7488, 7690, 7691, 7763, 7762
7489, 7691, 7692, 7764, 7763
7490, 7692, 7693, 7765, 7764
7491, 7693, 7694, 7766, 7765
7492, 7694, 7695, 7767, 7766
7493, 7695, 7696, 7768, 7767
7494, 7696, 7697, 7769, 7768
7495, 7697, 7698, 7770, 7769
7496, 7698, 7699, 7771, 7770
7497, 7699, 7700, 7772, 7771
7498, 7700, 7701, 7773, 7772
7499, 7701, 7702, 7774, 7773
7500, 7702, 7703, 7775, 7774
7501, 7703, 7704, 7776, 7775
7502, 7704, 7705, 7777, 7776
7503, 7705, 7706, 7778, 7777
7504, 7706, 7707, 7779, 7778
7505, 7707, 7708, 7780, 7779
7506, 7708, 7709, 7781, 7780
7507, 7709, 7710, 7782, 7781
7508, 7710, 7711, 7783, 7782
7509, 7711, 7712, 7784, 7783
7510, 7712, 7713, 7785, 7784
7511, 7713, 7714, 7786, 7785
7512, 7714, 7715, 7787, 7786
7513, 7715, 7716, 7788, 7787
7514, 7716, 7717, 7789, 7788
7515, 7717, 7718, 7790, 7789
7516, 7718, 7719, 7791, 7790
7517, 7719, 7720, 7792, 7791
7518, 7720, 7721, 7793, 7792
7519, 7721, 7722, 7794, 7793
7520, 7722, 7723, 7795, 7794
7521, 7729, 7728, 7796, 7797
7522, 7728, 7730, 7798, 7796
7523, 7730, 7731, 7799, 7798
7524, 7731, 7732, 7800, 7799
7525, 7732, 7733, 7801, 7800
7526, 7733, 7734, 7802, 7801
7527, 7734, 7735, 7803, 7802
7528, 7735, 7736, 7804, 7803
7529, 7736, 7737, 7805, 7804
7530, 7737, 7738, 7806, 7805
7531, 7738, 7739, 7807, 7806
7532, 7739, 7740, 7808, 7807
7533, 7740, 7741, 7809, 7808
7534, 7741, 7742, 7810, 7809
7535, 7742, 7743, 7811, 7810
7536, 7743, 7744, 7812, 7811
7537, 7744, 7745, 7813, 7812
7538, 7745, 7746, 7814, 7813
7539, 7746, 7747, 7815, 7814
7540, 7747, 7748, 7816, 7815
7541, 7748, 7749, 7817, 7816
7542, 7749, 7750, 7818, 7817
7543, 7750, 7751, 7819, 7818
7544, 7751, 7752, 7820, 7819
7545, 7752, 7753, 7821, 7820
7546, 7753, 7754, 7822, 7821
7547, 7754, 7755, 7823, 7822
7548, 7755, 7756, 7824, 7823
7549, 7756, 7757, 7825, 7824
7550, 7757, 7758, 7826, 7825
7551, 7758, 7759, 7827, 7826
7552, 7759, 7760, 7828, 7827
7553, 7760, 7761, 7829, 7828
7554, 7761, 7762, 7830, 7829
7555, 7762, 7763, 7831, 7830
7556, 7763, 7764, 7832, 7831
7557, 7764, 7765, 7833, 7832
7558, 7765, 7766, 7834, 7833
7559, 7766, 7767, 7835, 7834
7560, 7767, 7768, 7836, 7835
7561, 7768, 7769, 7837, 7836
7562, 7769, 7770, 7838, 7837
7563, 7770, 7771, 7839, 7838
7564, 7771, 7772, 7840, 7839
7565, 7772, 7773, 7841, 7840
7566, 7773, 7774, 7842, 7841
7567, 7774, 7775, 7843, 7842
7568, 7775, 7776, 7844, 7843
7569, 7776, 7777, 7845, 7844
7570, 7777, 7778, 7846, 7845
7571, 7778, 7779, 7847, 7846
7572, 7779, 7780, 7848, 7847
7573, 7780, 7781, 7849, 7848
7574, 7781, 7782, 7850, 7849
7575, 7782, 7783, 7851, 7850
7576, 7783, 7784, 7852, 7851
7577, 7784, 7785, 7853, 7852
7578, 7785, 7786, 7854, 7853
7579, 7786, 7787, 7855, 7854
7580, 7787, 7788, 7856, 7855
7581, 7788, 7789, 7857, 7856
7582, 7789, 7790, 7858, 7857
7583, 7797, 7796, 7859, 7860
7584, 7796, 7798, 7861, 7859
7585, 7798, 7799, 7862, 7861
7586, 7799, 7800, 7863, 7862
7587, 7800, 7801, 7864, 7863
7588, 7801, 7802, 7865, 7864
7589, 7802, 7803, 7866, 7865
7590, 7803, 7804, 7867, 7866
7591, 7804, 7805, 7868, 7867
7592, 7805, 7806, 7869, 7868
7593, 7806, 7807, 7870, 7869
7594, 7807, 7808, 7871, 7870
7595, 7808, 7809, 7872, 7871
7596, 7809, 7810, 7873, 7872
7597, 7810, 7811, 7874, 7873
7598, 7811, 7812, 7875, 7874
7599, 7812, 7813, 7876, 7875
7600, 7813, 7814, 7877, 7876
7601, 7814, 7815, 7878, 7877
7602, 7815, 7816, 7879, 7878
7603, 7816, 7817, 7880, 7879
7604, 7817, 7818, 7881, 7880
7605, 7818, 7819, 7882, 7881
7606, 7819, 7820, 7883, 7882
7607, 7820, 7821, 7884, 7883
7608, 7821, 7822, 7885, 7884
7609, 7822, 7823, 7886, 7885
7610, 7823, 7824, 7887, 7886
7611, 7824, 7825, 7888, 7887
7612, 7825, 7826, 7889, 7888
7613, 7826, 7827, 7890, 7889
7614, 7827, 7828, 7891, 7890
7615, 7828, 7829, 7892, 7891
7616, 7829, 7830, 7893, 7892
7617, 7830, 7831, 7894, 7893
7618, 7831, 7832, 7895, 7894
7619, 7832, 7833, 7896, 7895
7620, 7833, 7834, 7897, 7896
7621, 7834, 7835, 7898, 7897
7622, 7835, 7836, 7899, 7898
7623, 7836, 7837, 7900, 7899
7624, 7837, 7838, 7901, 7900
7625, 7838, 7839, 7902, 7901
7626, 7839, 7840, 7903, 7902
7627, 7840, 7841, 7904, 7903
7628, 7841, 7842, 7905, 7904
7629, 7842, 7843, 7906, 7905
7630, 7843, 7844, 7907, 7906
7631, 7844, 7845, 7908, 7907
7632, 7845, 7846, 7909, 7908
7633, 7846, 7847, 7910, 7909
7634, 7847, 7848, 7911, 7910
7635, 7848, 7849, 7912, 7911
7636, 7849, 7850, 7913, 7912
7637, 7850, 7851, 7914, 7913
7638, 7851, 7852, 7915, 7914
7639, 7852, 7853, 7916, 7915
7640, 7853, 7854, 7917, 7916
7641, 7854, 7855, 7918, 7917
7642, 7860, 7859, 7919, 7920
7643, 7859, 7861, 7921, 7919
7644, 7861, 7862, 7922, 7921
7645, 7862, 7863, 7923, 7922
7646, 7863, 7864, 7924, 7923
7647, 7864, 7865, 7925, 7924
7648, 7865, 7866, 7926, 7925
7649, 7866, 7867, 7927, 7926
7650, 7867, 7868, 7928, 7927
7651, 7868, 7869, 7929, 7928
7652, 7869, 7870, 7930, 7929
7653, 7870, 7871, 7931, 7930
7654, 7871, 7872, 7932, 7931
7655, 7872, 7873, 7933, 7932
7656, 7873, 7874, 7934, 7933
7657, 7874, 7875, 7935, 7934
7658, 7875, 7876, 7936, 7935
7659, 7876, 7877, 7937, 7936
7660, 7877, 7878, 7938, 7937
7661, 7878, 7879, 7939, 7938
7662, 7879, 7880, 7940, 7939
7663, 7880, 7881, 7941, 7940
7664, 7881, 7882, 7942, 7941
7665, 7882, 7883, 7943, 7942
7666, 7883, 7884, 7944, 7943
7667, 7884, 7885, 7945, 7944
7668, 7885, 7886, 7946, 7945
7669, 7886, 7887, 7947, 7946
7670, 7887, 7888, 7948, 7947
7671, 7888, 7889, 7949, 7948
7672, 7889, 7890, 7950, 7949
7673, 7890, 7891, 7951, 7950
7674, 7891, 7892, 7952, 7951
7675, 7892, 7893, 7953, 7952
7676, 7893, 7894, 7954, 7953
7677, 7894, 7895, 7955, 7954
7678, 7895, 7896, 7956, 7955
7679, 7896, 7897, 7957, 7956
7680, 7897, 7898, 7958, 7957
7681, 7898, 7899, 7959, 7958
7682, 7899, 7900, 7960, 7959
7683, 7900, 7901, 7961, 7960
7684, 7901, 7902, 7962, 7961
7685, 7902, 7903, 7963, 7962
7686, 7903, 7904, 7964, 7963
7687, 7904, 7905, 7965, 7964
7688, 7905, 7906, 7966, 7965
7689, 7906, 7907, 7967, 7966
7690, 7907, 7908, 7968, 7967
7691, 7908, 7909, 7969, 7968
7692, 7909, 7910, 7970, 7969
7693, 7910, 7911, 7971, 7970
7694, 7911, 7912, 7972, 7971
7695, 7912, 7913, 7973, 7972
7696, 7920, 7919, 7974, 7975
7697, 7919, 7921, 7976, 7974
7698, 7921, 7922, 7977, 7976
7699, 7922, 7923, 7978, 7977
7700, 7923, 7924, 7979, 7978
7701, 7924, 7925, 7980, 7979
7702, 7925, 7926, 7981, 7980
7703, 7926, 7927, 7982, 7981
7704, 7927, 7928, 7983, 7982
7705, 7928, 7929, 7984, 7983
7706, 7929, 7930, 7985, 7984
7707, 7930, 7931, 7986, 7985
7708, 7931, 7932, 7987, 7986
7709, 7932, 7933, 7988, 7987
7710, 7933, 7934, 7989, 7988
7711, 7934, 7935, 7990, 7989
7712, 7935, 7936, 7991, 7990
7713, 7936, 7937, 7992, 7991
7714, 7937, 7938, 7993, 7992
7715, 7938, 7939, 7994, 7993
7716, 7939, 7940, 7995, 7994
7717, 7940, 7941, 7996, 7995
7718, 7941, 7942, 7997, 7996
7719, 7942, 7943, 7998, 7997
7720, 7943, 7944, 7999, 7998
7721, 7944, 7945, 8000, 7999
7722, 7945, 7946, 8001, 8000
7723, 7946, 7947, 8002, 8001
7724, 7947, 7948, 8003, 8002
7725, 7948, 7949, 8004, 8003
7726, 7949, 7950, 8005, 8004
7727, 7950, 7951, 8006, 8005
7728, 7951, 7952, 8007, 8006
7729, 7952, 7953, 8008, 8007
7730, 7953, 7954, 8009, 8008
7731, 7954, 7955, 8010, 8009
7732, 7955, 7956, 8011, 8010
7733, 7956, 7957, 8012, 8011
7734, 7957, 7958, 8013, 8012
7735, 7958, 7959, 8014, 8013
7736, 7959, 7960, 8015, 8014
7737, 7960, 7961, 8016, 8015
7738, 7961, 7962, 8017, 8016
7739, 7962, 7963, 8018, 8017
7740, 7963, 7964, 8019, 8018
7741, 7964, 7965, 8020, 8019
7742, 7965, 7966, 8021, 8020
7743, 7966, 7967, 8022, 8021
7744, 7967, 7968, 8023, 8022
7745, 7968, 7969, 8024, 8023
7746, 7969, 7970, 8025, 8024
7747, 7975, 7974, 8026, 8027
7748, 7974, 7976, 8028, 8026
7749, 7976, 7977, 8029, 8028
7750, 7977, 7978, 8030, 8029
7751, 7978, 7979, 8031, 8030
7752, 7979, 7980, 8032, 8031
7753, 7980, 7981, 8033, 8032
7754, 7981, 7982, 8034, 8033
7755, 7982, 7983, 8035, 8034
7756, 7983, 7984, 8036, 8035
7757, 7984, 7985, 8037, 8036
7758, 7985, 7986, 8038, 8037
7759, 7986, 7987, 8039, 8038
7760, 7987, 7988, 8040, 8039
7761, 7988, 7989, 8041, 8040
7762, 7989, 7990, 8042, 8041
7763, 7990, 7991, 8043, 8042
7764, 7991, 7992, 8044, 8043
7765, 7992, 7993, 8045, 8044
7766, 7993, 7994, 8046, 8045
7767, 7994, 7995, 8047, 8046
7768, 7995, 7996, 8048, 8047
7769, 7996, 7997, 8049, 8048
7770, 7997, 7998, 8050, 8049
7771, 7998, 7999, 8051, 8050
7772, 7999, 8000, 8052, 8051
7773, 8000, 8001, 8053, 8052
7774, 8001, 8002, 8054, 8053
7775, 8002, 8003, 8055, 8054
7776, 8003, 8004, 8056, 8055
7777, 8004, 8005, 8057, 8056
7778, 8005, 8006, 8058, 8057
7779, 8006, 8007, 8059, 8058
7780, 8007, 8008, 8060, 8059
7781, 8008, 8009, 8061, 8060
7782, 8009, 8010, 8062, 8061
7783, 8010, 8011, 8063, 8062
7784, 8011, 8012, 8064, 8063
7785, 8012, 8013, 8065, 8064
7786, 8013, 8014, 8066, 8065
7787, 8014, 8015, 8067, 8066
7788, 8015, 8016, 8068, 8067
7789, 8016, 8017, 8069, 8068
7790, 8017, 8018, 8070, 8069
7791, 8018, 8019, 8071, 8070
7792, 8019, 8020, 8072, 8071
7793, 8020, 8021, 8073, 8072
7794, 8027, 8026, 8074, 8075
7795, 8026, 8028, 8076, 8074
7796, 8028, 8029, 8077, 8076
7797, 8029, 8030, 8078, 8077
7798, 8030, 8031, 8079, 8078
7799, 8031, 8032, 8080, 8079
7800, 8032, 8033, 8081, 8080
7801, 8033, 8034, 8082, 8081
7802, 8034, 8035, 8083, 8082
7803, 8035, 8036, 8084, 8083
7804, 8036, 8037, 8085, 8084
7805, 8037, 8038, 8086, 8085
7806, 8038, 8039, 8087, 8086
7807, 8039, 8040, 8088, 8087
7808, 8040, 8041, 8089, 8088
7809, 8041, 8042, 8090, 8089
7810, 8042, 8043, 8091, 8090
7811, 8043, 8044, 8092, 8091
7812, 8044, 8045, 8093, 8092
7813, 8045, 8046, 8094, 8093
7814, 8046, 8047, 8095, 8094
7815, 8047, 8048, 8096, 8095
7816, 8048, 8049, 8097, 8096
7817, 8049, 8050, 8098, 8097
7818, 8050, 8051, 8099, 8098
7819, 8051, 8052, 8100, 8099
7820, 8052, 8053, 8101, 8100
7821, 8053, 8054, 8102, 8101
7822, 8054, 8055, 8103, 8102
7823, 8055, 8056, 8104, 8103
7824, 8056, 8057, 8105, 8104
7825, 8057, 8058, 8106, 8105
7826, 8058, 8059, 8107, 8106
7827, 8059, 8060, 8108, 8107
7828, 8060, 8061, 8109, 8108
7829, 8061, 8062, 8110, 8109
7830, 8062, 8063, 8111, 8110
7831, 8063, 8064, 8112, 8111
7832, 8064, 8065, 8113, 8112
7833, 8065, 8066, 8114, 8113
7834, 8066, 8067, 8115, 8114
7835, 8067, 8068, 8116, 8115
7836, 8068, 8069, 8117, 8116
7837, 8069, 8070, 8118, 8117
7838, 8070, 8071, 8119, 8118
7839, 8075, 8074, 8120, 8121
7840, 8074, 8076, 8122, 8120
7841, 8076, 8077, 8123, 8122
7842, 8077, 8078, 8124, 8123
7843, 8078, 8079, 8125, 8124
7844, 8079, 8080, 8126, 8125
7845, 8080, 8081, 8127, 8126
7846, 8081, 8082, 8128, 8127
7847, 8082, 8083, 8129, 8128
7848, 8083, 8084, 8130, 8129
7849, 8084, 8085, 8131, 8130
7850, 8085, 8086, 8132, 8131
7851, 8086, 8087, 8133, 8132
7852, 8087, 8088, 8134, 8133
7853, 8088, 8089, 8135, 8134
7854, 8089, 8090, 8136, 8135
7855, 8090, 8091, 8137, 8136
7856, 8091, 8092, 8138, 8137
7857, 8092, 8093, 8139, 8138
7858, 8093, 8094, 8140, 8139
7859, 8094, 8095, 8141, 8140
7860, 8095, 8096, 8142, 8141
7861, 8096, 8097, 8143, 8142
7862, 8097, 8098, 8144, 8143
7863, 8098, 8099, 8145, 8144
7864, 8099, 8100, 8146, 8145
7865, 8100, 8101, 8147, 8146
7866, 8101, 8102, 8148, 8147
7867, 8102, 8103, 8149, 8148
7868, 8103, 8104, 8150, 8149
7869, 8104, 8105, 8151, 8150
7870, 8105, 8106, 8152, 8151
7871, 8106, 8107, 8153, 8152
7872, 8107, 8108, 8154, 8153
7873, 8108, 8109, 8155, 8154
7874, 8109, 8110, 8156, 8155
7875, 8110, 8111, 8157, 8156
7876, 8111, 8112, 8158, 8157
7877, 8112, 8113, 8159, 8158
7878, 8113, 8114, 8160, 8159
7879, 8114, 8115, 8161, 8160
7880, 8115, 8116, 8162, 8161
7881, 8121, 8120, 8163, 8164
7882, 8120, 8122, 8165, 8163
7883, 8122, 8123, 8166, 8165
7884, 8123, 8124, 8167, 8166
7885, 8124, 8125, 8168, 8167
7886, 8125, 8126, 8169, 8168
7887, 8126, 8127, 8170, 8169
7888, 8127, 8128, 8171, 8170
7889, 8128, 8129, 8172, 8171
7890, 8129, 8130, 8173, 8172
7891, 8130, 8131, 8174, 8173
7892, 8131, 8132, 8175, 8174
7893, 8132, 8133, 8176, 8175
7894, 8133, 8134, 8177, 8176
7895, 8134, 8135, 8178, 8177
7896, 8135, 8136, 8179, 8178
7897, 8136, 8137, 8180, 8179
7898, 8137, 8138, 8181, 8180
7899, 8138, 8139, 8182, 8181
7900, 8139, 8140, 8183, 8182
7901, 8140, 8141, 8184, 8183
7902, 8141, 8142, 8185, 8184
7903, 8142, 8143, 8186, 8185
7904, 8143, 8144, 8187, 8186
7905, 8144, 8145, 8188, 8187
7906, 8145, 8146, 8189, 8188
7907, 8146, 8147, 8190, 8189
7908, 8147, 8148, 8191, 8190
7909, 8148, 8149, 8192, 8191
7910, 8149, 8150, 8193, 8192
7911, 8150, 8151, 8194, 8193
7912, 8151, 8152, 8195, 8194
7913, 8152, 8153, 8196, 8195
7914, 8153, 8154, 8197, 8196
7915, 8154, 8155, 8198, 8197
7916, 8155, 8156, 8199, 8198
7917, 8156, 8157, 8200, 8199
7918, 8157, 8158, 8201, 8200
7919, 8158, 8159, 8202, 8201
7920, 8159, 8160, 8203, 8202
7921, 8160, 8161, 8204, 8203
*NSET, NSET=STUBREAR
1
*NSET, NSET=NALL, GENERATE
1, 8204
*MATERIAL, NAME=DISC
*ELASTIC
1.138000e+11, 0.3420
*DENSITY
4430.0000
*EXPANSION, ZERO=300.0
9.200000e-06
*SOLID SECTION, ELSET=DISC, MATERIAL=DISC
*INITIAL CONDITIONS, TYPE=TEMPERATURE
NALL, 300.0
*BOUNDARY
STUBREAR, 2, 2, 0.0
** ---- step 1: centrifugal at MCS
*STEP
*STATIC
*DLOAD
DISC, CENTRIF, 6.354946e+07, 0., 0., 0., 0., 1., 0.
8, P2, -3.791224e+07
17, P2, -3.791224e+07
27, P2, -3.791224e+07
37, P2, -3.791224e+07
48, P2, -3.791224e+07
59, P2, -3.791224e+07
71, P2, -3.791224e+07
83, P2, -3.791224e+07
96, P2, -3.791224e+07
110, P2, -3.791224e+07
124, P2, -3.791224e+07
139, P2, -3.791224e+07
155, P2, -3.791224e+07
171, P2, -3.791224e+07
187, P2, -3.791224e+07
203, P2, -3.791224e+07
219, P2, -3.791224e+07
236, P2, -3.791224e+07
253, P2, -3.791224e+07
270, P2, -3.791224e+07
287, P2, -3.791224e+07
304, P2, -3.791224e+07
322, P2, -3.791224e+07
340, P2, -3.791224e+07
358, P2, -3.791224e+07
377, P2, -3.791224e+07
396, P2, -3.791224e+07
415, P2, -3.791224e+07
434, P2, -3.791224e+07
454, P2, -3.791224e+07
474, P2, -3.791224e+07
495, P2, -3.791224e+07
516, P2, -3.791224e+07
537, P2, -3.791224e+07
559, P2, -3.791224e+07
581, P2, -3.791224e+07
604, P2, -3.791224e+07
627, P2, -3.791224e+07
650, P2, -3.791224e+07
674, P2, -3.791224e+07
699, P2, -3.791224e+07
724, P2, -3.791224e+07
750, P2, -3.791224e+07
776, P2, -3.791224e+07
803, P2, -3.791224e+07
830, P2, -3.791224e+07
858, P2, -3.791224e+07
886, P2, -3.791224e+07
915, P2, -3.791224e+07
945, P2, -3.791224e+07
975, P2, -3.791224e+07
1006, P2, -3.791224e+07
1038, P2, -3.791224e+07
1070, P2, -3.791224e+07
1103, P2, -3.791224e+07
1137, P2, -3.791224e+07
1172, P2, -3.791224e+07
1208, P2, -3.791224e+07
1245, P2, -3.791224e+07
1282, P2, -3.791224e+07
1320, P2, -3.791224e+07
1359, P2, -3.791224e+07
1399, P2, -3.791224e+07
1440, P2, -3.791224e+07
1482, P2, -3.791224e+07
1525, P2, -3.791224e+07
1569, P2, -3.791224e+07
1614, P2, -3.791224e+07
1660, P2, -3.791224e+07
1708, P2, -3.791224e+07
1759, P2, -3.791224e+07
1811, P2, -3.791224e+07
1864, P2, -3.791224e+07
1920, P2, -3.791224e+07
1977, P2, -3.791224e+07
2035, P2, -3.791224e+07
2095, P2, -3.791224e+07
2156, P2, -3.791224e+07
2219, P2, -3.791224e+07
2284, P2, -3.791224e+07
2351, P2, -3.791224e+07
2419, P2, -3.791224e+07
2489, P2, -3.791224e+07
2561, P2, -3.791224e+07
2635, P2, -3.791224e+07
2712, P2, -3.791224e+07
2791, P2, -3.791224e+07
2872, P2, -3.791224e+07
2955, P2, -3.791224e+07
3042, P2, -3.791224e+07
3131, P2, -3.791224e+07
3223, P2, -3.791224e+07
3317, P2, -3.791224e+07
3416, P2, -3.791224e+07
3517, P2, -3.791224e+07
3621, P2, -3.791224e+07
3729, P2, -3.791224e+07
3842, P2, -3.791224e+07
3959, P2, -3.791224e+07
4081, P2, -3.791224e+07
4209, P2, -3.791224e+07
4346, P2, -3.791224e+07
4489, P2, -3.791224e+07
*TEMPERATURE
NALL, 300.0
*NODE FILE
U
*EL FILE
S
*EL PRINT, ELSET=DISC
S
*END STEP
** ---- step 2: MCS + thermal field
*STEP
*STATIC
*DLOAD
DISC, CENTRIF, 6.354946e+07, 0., 0., 0., 0., 1., 0.
8, P2, -3.791224e+07
17, P2, -3.791224e+07
27, P2, -3.791224e+07
37, P2, -3.791224e+07
48, P2, -3.791224e+07
59, P2, -3.791224e+07
71, P2, -3.791224e+07
83, P2, -3.791224e+07
96, P2, -3.791224e+07
110, P2, -3.791224e+07
124, P2, -3.791224e+07
139, P2, -3.791224e+07
155, P2, -3.791224e+07
171, P2, -3.791224e+07
187, P2, -3.791224e+07
203, P2, -3.791224e+07
219, P2, -3.791224e+07
236, P2, -3.791224e+07
253, P2, -3.791224e+07
270, P2, -3.791224e+07
287, P2, -3.791224e+07
304, P2, -3.791224e+07
322, P2, -3.791224e+07
340, P2, -3.791224e+07
358, P2, -3.791224e+07
377, P2, -3.791224e+07
396, P2, -3.791224e+07
415, P2, -3.791224e+07
434, P2, -3.791224e+07
454, P2, -3.791224e+07
474, P2, -3.791224e+07
495, P2, -3.791224e+07
516, P2, -3.791224e+07
537, P2, -3.791224e+07
559, P2, -3.791224e+07
581, P2, -3.791224e+07
604, P2, -3.791224e+07
627, P2, -3.791224e+07
650, P2, -3.791224e+07
674, P2, -3.791224e+07
699, P2, -3.791224e+07
724, P2, -3.791224e+07
750, P2, -3.791224e+07
776, P2, -3.791224e+07
803, P2, -3.791224e+07
830, P2, -3.791224e+07
858, P2, -3.791224e+07
886, P2, -3.791224e+07
915, P2, -3.791224e+07
945, P2, -3.791224e+07
975, P2, -3.791224e+07
1006, P2, -3.791224e+07
1038, P2, -3.791224e+07
1070, P2, -3.791224e+07
1103, P2, -3.791224e+07
1137, P2, -3.791224e+07
1172, P2, -3.791224e+07
1208, P2, -3.791224e+07
1245, P2, -3.791224e+07
1282, P2, -3.791224e+07
1320, P2, -3.791224e+07
1359, P2, -3.791224e+07
1399, P2, -3.791224e+07
1440, P2, -3.791224e+07
1482, P2, -3.791224e+07
1525, P2, -3.791224e+07
1569, P2, -3.791224e+07
1614, P2, -3.791224e+07
1660, P2, -3.791224e+07
1708, P2, -3.791224e+07
1759, P2, -3.791224e+07
1811, P2, -3.791224e+07
1864, P2, -3.791224e+07
1920, P2, -3.791224e+07
1977, P2, -3.791224e+07
2035, P2, -3.791224e+07
2095, P2, -3.791224e+07
2156, P2, -3.791224e+07
2219, P2, -3.791224e+07
2284, P2, -3.791224e+07
2351, P2, -3.791224e+07
2419, P2, -3.791224e+07
2489, P2, -3.791224e+07
2561, P2, -3.791224e+07
2635, P2, -3.791224e+07
2712, P2, -3.791224e+07
2791, P2, -3.791224e+07
2872, P2, -3.791224e+07
2955, P2, -3.791224e+07
3042, P2, -3.791224e+07
3131, P2, -3.791224e+07
3223, P2, -3.791224e+07
3317, P2, -3.791224e+07
3416, P2, -3.791224e+07
3517, P2, -3.791224e+07
3621, P2, -3.791224e+07
3729, P2, -3.791224e+07
3842, P2, -3.791224e+07
3959, P2, -3.791224e+07
4081, P2, -3.791224e+07
4209, P2, -3.791224e+07
4346, P2, -3.791224e+07
4489, P2, -3.791224e+07
*TEMPERATURE
1, 308.150
2, 308.150
3, 309.968
4, 309.968
5, 308.150
6, 309.968
7, 308.150
8, 309.968
9, 308.150
10, 309.968
11, 308.150
12, 309.968
13, 308.150
14, 309.968
15, 308.150
16, 309.968
17, 308.150
18, 309.968
19, 311.787
20, 311.787
21, 311.787
22, 311.787
23, 311.787
24, 311.787
25, 311.787
26, 311.787
27, 311.787
28, 309.968
29, 311.787
30, 313.605
31, 313.605
32, 313.605
33, 313.605
34, 313.605
35, 313.605
36, 313.605
37, 313.605
38, 313.605
39, 313.605
40, 311.787
41, 313.605
42, 315.424
43, 315.424
44, 315.424
45, 315.424
46, 315.424
47, 315.424
48, 315.424
49, 315.424
50, 315.424
51, 315.424
52, 315.424
53, 317.242
54, 317.242
55, 317.242
56, 317.242
57, 317.242
58, 317.242
59, 317.242
60, 317.242
61, 317.242
62, 317.242
63, 317.242
64, 315.424
65, 317.242
66, 319.061
67, 319.061
68, 319.061
69, 319.061
70, 319.061
71, 319.061
72, 319.061
73, 319.061
74, 319.061
75, 319.061
76, 319.061
77, 319.061
78, 320.879
79, 320.879
80, 320.879
81, 320.879
82, 320.879
83, 320.879
84, 320.879
85, 320.879
86, 320.879
87, 320.879
88, 320.879
89, 320.879
90, 319.061
91, 320.879
92, 322.698
93, 322.698
94, 322.698
95, 322.698
96, 322.698
97, 322.698
98, 322.698
99, 322.698
100, 322.698
101, 322.698
102, 322.698
103, 322.698
104, 322.698
105, 324.516
106, 324.516
107, 324.516
108, 324.516
109, 324.516
110, 324.516
111, 324.516
112, 324.516
113, 324.516
114, 324.516
115, 324.516
116, 324.516
117, 324.516
118, 322.698
119, 324.516
120, 326.335
121, 326.335
122, 326.335
123, 326.335
124, 326.335
125, 326.335
126, 326.335
127, 326.335
128, 326.335
129, 326.335
130, 326.335
131, 326.335
132, 326.335
133, 326.335
134, 324.516
135, 326.335
136, 328.153
137, 328.153
138, 328.153
139, 328.153
140, 328.153
141, 328.153
142, 328.153
143, 328.153
144, 328.153
145, 328.153
146, 328.153
147, 328.153
148, 328.153
149, 328.153
150, 328.153
151, 329.972
152, 329.972
153, 329.972
154, 329.972
155, 329.972
156, 329.972
157, 329.972
158, 329.972
159, 329.972
160, 329.972
161, 329.972
162, 329.972
163, 329.972
164, 329.972
165, 329.972
166, 328.153
167, 329.972
168, 331.088
169, 331.088
170, 331.088
171, 331.088
172, 331.088
173, 331.088
174, 331.088
175, 331.088
176, 331.088
177, 331.088
178, 331.088
179, 331.088
180, 331.088
181, 331.088
182, 331.088
183, 331.088
184, 329.972
185, 331.088
186, 331.790
187, 331.790
188, 331.790
189, 331.790
190, 331.790
191, 331.790
192, 331.790
193, 331.790
194, 331.790
195, 331.790
196, 331.790
197, 331.790
198, 331.790
199, 331.790
200, 331.790
201, 331.790
202, 331.790
203, 333.609
204, 333.609
205, 333.609
206, 333.609
207, 333.609
208, 333.609
209, 333.609
210, 333.609
211, 333.609
212, 333.609
213, 333.609
214, 333.609
215, 333.609
216, 333.609
217, 333.609
218, 333.609
219, 333.609
220, 335.427
221, 335.427
222, 335.427
223, 335.427
224, 335.427
225, 335.427
226, 335.427
227, 335.427
228, 335.427
229, 335.427
230, 335.427
231, 335.427
232, 335.427
233, 335.427
234, 335.427
235, 335.427
236, 335.427
237, 337.246
238, 337.246
239, 337.246
240, 337.246
241, 337.246
242, 337.246
243, 337.246
244, 337.246
245, 337.246
246, 337.246
247, 337.246
248, 337.246
249, 337.246
250, 337.246
251, 337.246
252, 337.246
253, 337.246
254, 339.064
255, 339.064
256, 339.064
257, 339.064
258, 339.064
259, 339.064
260, 339.064
261, 339.064
262, 339.064
263, 339.064
264, 339.064
265, 339.064
266, 339.064
267, 339.064
268, 339.064
269, 339.064
270, 339.064
271, 337.246
272, 339.064
273, 340.883
274, 340.883
275, 340.883
276, 340.883
277, 340.883
278, 340.883
279, 340.883
280, 340.883
281, 340.883
282, 340.883
283, 340.883
284, 340.883
285, 340.883
286, 340.883
287, 340.883
288, 340.883
289, 340.883
290, 340.883
291, 342.262
292, 342.262
293, 342.262
294, 342.262
295, 342.262
296, 342.262
297, 342.262
298, 342.262
299, 342.262
300, 342.262
301, 342.262
302, 342.262
303, 342.262
304, 342.262
305, 342.262
306, 342.262
307, 342.262
308, 342.262
309, 342.701
310, 342.701
311, 342.701
312, 342.701
313, 342.701
314, 342.701
315, 342.701
316, 342.701
317, 342.701
318, 342.701
319, 342.701
320, 342.701
321, 342.701
322, 342.701
323, 342.701
324, 342.701
325, 342.701
326, 342.701
327, 344.520
328, 344.520
329, 344.520
330, 344.520
331, 344.520
332, 344.520
333, 344.520
334, 344.520
335, 344.520
336, 344.520
337, 344.520
338, 344.520
339, 344.520
340, 344.520
341, 344.520
342, 344.520
343, 344.520
344, 344.520
345, 346.338
346, 346.338
347, 346.338
348, 346.338
349, 346.338
350, 346.338
351, 346.338
352, 346.338
353, 346.338
354, 346.338
355, 346.338
356, 346.338
357, 346.338
358, 346.338
359, 346.338
360, 346.338
361, 346.338
362, 346.338
363, 344.520
364, 346.338
365, 348.157
366, 348.157
367, 348.157
368, 348.157
369, 348.157
370, 348.157
371, 348.157
372, 348.157
373, 348.157
374, 348.157
375, 348.157
376, 348.157
377, 348.157
378, 348.157
379, 348.157
380, 348.157
381, 348.157
382, 348.157
383, 348.157
384, 349.975
385, 349.975
386, 349.975
387, 349.975
388, 349.975
389, 349.975
390, 349.975
391, 349.975
392, 349.975
393, 349.975
394, 349.975
395, 349.975
396, 349.975
397, 349.975
398, 349.975
399, 349.975
400, 349.975
401, 349.975
402, 349.975
403, 351.793
404, 351.793
405, 351.793
406, 351.793
407, 351.793
408, 351.793
409, 351.793
410, 351.793
411, 351.793
412, 351.793
413, 351.793
414, 351.793
415, 351.793
416, 351.793
417, 351.793
418, 351.793
419, 351.793
420, 351.793
421, 351.793
422, 349.975
423, 351.793
424, 353.180
425, 353.180
426, 353.180
427, 353.180
428, 353.180
429, 353.180
430, 353.180
431, 353.180
432, 353.180
433, 353.180
434, 353.180
435, 353.180
436, 353.180
437, 353.180
438, 353.180
439, 353.180
440, 353.180
441, 353.180
442, 353.180
443, 353.180
444, 353.612
445, 353.612
446, 353.612
447, 353.612
448, 353.612
449, 353.612
450, 353.612
451, 353.612
452, 353.612
453, 353.612
454, 353.612
455, 353.612
456, 353.612
457, 353.612
458, 353.612
459, 353.612
460, 353.612
461, 353.612
462, 353.612
463, 353.612
464, 355.430
465, 355.430
466, 355.430
467, 355.430
468, 355.430
469, 355.430
470, 355.430
471, 355.430
472, 355.430
473, 355.430
474, 355.430
475, 355.430
476, 355.430
477, 355.430
478, 355.430
479, 355.430
480, 355.430
481, 355.430
482, 355.430
483, 355.430
484, 357.249
485, 357.249
486, 357.249
487, 357.249
488, 357.249
489, 357.249
490, 357.249
491, 357.249
492, 357.249
493, 357.249
494, 357.249
495, 357.249
496, 357.249
497, 357.249
498, 357.249
499, 357.249
500, 357.249
501, 357.249
502, 357.249
503, 357.249
504, 355.430
505, 357.249
506, 359.067
507, 359.067
508, 359.067
509, 359.067
510, 359.067
511, 359.067
512, 359.067
513, 359.067
514, 359.067
515, 359.067
516, 359.067
517, 359.067
518, 359.067
519, 359.067
520, 359.067
521, 359.067
522, 359.067
523, 359.067
524, 359.067
525, 359.067
526, 359.067
527, 360.886
528, 360.886
529, 360.886
530, 360.886
531, 360.886
532, 360.886
533, 360.886
534, 360.886
535, 360.886
536, 360.886
537, 360.886
538, 360.886
539, 360.886
540, 360.886
541, 360.886
542, 360.886
543, 360.886
544, 360.886
545, 360.886
546, 360.886
547, 360.886
548, 359.067
549, 360.886
550, 362.704
551, 362.704
552, 362.704
553, 362.704
554, 362.704
555, 362.704
556, 362.704
557, 362.704
558, 362.704
559, 362.704
560, 362.704
561, 362.704
562, 362.704
563, 362.704
564, 362.704
565, 362.704
566, 362.704
567, 362.704
568, 362.704
569, 362.704
570, 362.704
571, 362.704
572, 363.802
573, 363.802
574, 363.802
575, 363.802
576, 363.802
577, 363.802
578, 363.802
579, 363.802
580, 363.802
581, 363.802
582, 363.802
583, 363.802
584, 363.802
585, 363.802
586, 363.802
587, 363.802
588, 363.802
589, 363.802
590, 363.802
591, 363.802
592, 363.802
593, 363.802
594, 364.523
595, 364.523
596, 364.523
597, 364.523
598, 364.523
599, 364.523
600, 364.523
601, 364.523
602, 364.523
603, 364.523
604, 364.523
605, 364.523
606, 364.523
607, 364.523
608, 364.523
609, 364.523
610, 364.523
611, 364.523
612, 364.523
613, 364.523
614, 364.523
615, 364.523
616, 363.802
617, 364.523
618, 366.341
619, 366.341
620, 366.341
621, 366.341
622, 366.341
623, 366.341
624, 366.341
625, 366.341
626, 366.341
627, 366.341
628, 366.341
629, 366.341
630, 366.341
631, 366.341
632, 366.341
633, 366.341
634, 366.341
635, 366.341
636, 366.341
637, 366.341
638, 366.341
639, 366.341
640, 366.341
641, 368.160
642, 368.160
643, 368.160
644, 368.160
645, 368.160
646, 368.160
647, 368.160
648, 368.160
649, 368.160
650, 368.160
651, 368.160
652, 368.160
653, 368.160
654, 368.160
655, 368.160
656, 368.160
657, 368.160
658, 368.160
659, 368.160
660, 368.160
661, 368.160
662, 368.160
663, 368.160
664, 366.341
665, 368.160
666, 369.978
667, 369.978
668, 369.978
669, 369.978
670, 369.978
671, 369.978
672, 369.978
673, 369.978
674, 369.978
675, 369.978
676, 369.978
677, 369.978
678, 369.978
679, 369.978
680, 369.978
681, 369.978
682, 369.978
683, 369.978
684, 369.978
685, 369.978
686, 369.978
687, 369.978
688, 369.978
689, 369.978
690, 371.797
691, 371.797
692, 371.797
693, 371.797
694, 371.797
695, 371.797
696, 371.797
697, 371.797
698, 371.797
699, 371.797
700, 371.797
701, 371.797
702, 371.797
703, 371.797
704, 371.797
705, 371.797
706, 371.797
707, 371.797
708, 371.797
709, 371.797
710, 371.797
711, 371.797
712, 371.797
713, 371.797
714, 373.615
715, 373.615
716, 373.615
717, 373.615
718, 373.615
719, 373.615
720, 373.615
721, 373.615
722, 373.615
723, 373.615
724, 373.615
725, 373.615
726, 373.615
727, 373.615
728, 373.615
729, 373.615
730, 373.615
731, 373.615
732, 373.615
733, 373.615
734, 373.615
735, 373.615
736, 373.615
737, 373.615
738, 371.797
739, 373.615
740, 374.088
741, 374.088
742, 374.088
743, 374.088
744, 374.088
745, 374.088
746, 374.088
747, 374.088
748, 374.088
749, 374.088
750, 374.088
751, 374.088
752, 374.088
753, 374.088
754, 374.088
755, 374.088
756, 374.088
757, 374.088
758, 374.088
759, 374.088
760, 374.088
761, 374.088
762, 374.088
763, 374.088
764, 374.088
765, 373.615
766, 374.088
767, 375.434
768, 375.434
769, 375.434
770, 375.434
771, 375.434
772, 375.434
773, 375.434
774, 375.434
775, 375.434
776, 375.434
777, 375.434
778, 375.434
779, 375.434
780, 375.434
781, 375.434
782, 375.434
783, 375.434
784, 375.434
785, 375.434
786, 375.434
787, 375.434
788, 375.434
789, 375.434
790, 375.434
791, 375.434
792, 375.434
793, 377.252
794, 377.252
795, 377.252
796, 377.252
797, 377.252
798, 377.252
799, 377.252
800, 377.252
801, 377.252
802, 377.252
803, 377.252
804, 377.252
805, 377.252
806, 377.252
807, 377.252
808, 377.252
809, 377.252
810, 377.252
811, 377.252
812, 377.252
813, 377.252
814, 377.252
815, 377.252
816, 377.252
817, 377.252
818, 377.252
819, 375.434
820, 377.252
821, 379.071
822, 379.071
823, 379.071
824, 379.071
825, 379.071
826, 379.071
827, 379.071
828, 379.071
829, 379.071
830, 379.071
831, 379.071
832, 379.071
833, 379.071
834, 379.071
835, 379.071
836, 379.071
837, 379.071
838, 379.071
839, 379.071
840, 379.071
841, 379.071
842, 379.071
843, 379.071
844, 379.071
845, 379.071
846, 379.071
847, 379.071
848, 380.889
849, 380.889
850, 380.889
851, 380.889
852, 380.889
853, 380.889
854, 380.889
855, 380.889
856, 380.889
857, 380.889
858, 380.889
859, 380.889
860, 380.889
861, 380.889
862, 380.889
863, 380.889
864, 380.889
865, 380.889
866, 380.889
867, 380.889
868, 380.889
869, 380.889
870, 380.889
871, 380.889
872, 380.889
873, 380.889
874, 380.889
875, 379.071
876, 380.889
877, 382.708
878, 382.708
879, 382.708
880, 382.708
881, 382.708
882, 382.708
883, 382.708
884, 382.708
885, 382.708
886, 382.708
887, 382.708
888, 382.708
889, 382.708
890, 382.708
891, 382.708
892, 382.708
893, 382.708
894, 382.708
895, 382.708
896, 382.708
897, 382.708
898, 382.708
899, 382.708
900, 382.708
901, 382.708
902, 382.708
903, 382.708
904, 382.708
905, 384.000
906, 384.000
907, 384.000
908, 384.000
909, 384.000
910, 384.000
911, 384.000
912, 384.000
913, 384.000
914, 384.000
915, 384.000
916, 384.000
917, 384.000
918, 384.000
919, 384.000
920, 384.000
921, 384.000
922, 384.000
923, 384.000
924, 384.000
925, 384.000
926, 384.000
927, 384.000
928, 384.000
929, 384.000
930, 384.000
931, 384.000
932, 384.000
933, 382.708
934, 384.000
935, 384.526
936, 384.526
937, 384.526
938, 384.526
939, 384.526
940, 384.526
941, 384.526
942, 384.526
943, 384.526
944, 384.526
945, 384.526
946, 384.526
947, 384.526
948, 384.526
949, 384.526
950, 384.526
951, 384.526
952, 384.526
953, 384.526
954, 384.526
955, 384.526
956, 384.526
957, 384.526
958, 384.526
959, 384.526
960, 384.526
961, 384.526
962, 384.526
963, 384.526
964, 386.345
965, 386.345
966, 386.345
967, 386.345
968, 386.345
969, 386.345
970, 386.345
971, 386.345
972, 386.345
973, 386.345
974, 386.345
975, 386.345
976, 386.345
977, 386.345
978, 386.345
979, 386.345
980, 386.345
981, 386.345
982, 386.345
983, 386.345
984, 386.345
985, 386.345
986, 386.345
987, 386.345
988, 386.345
989, 386.345
990, 386.345
991, 386.345
992, 386.345
993, 384.526
994, 386.345
995, 388.163
996, 388.163
997, 388.163
998, 388.163
999, 388.163
1000, 388.163
1001, 388.163
1002, 388.163
1003, 388.163
1004, 388.163
1005, 388.163
1006, 388.163
1007, 388.163
1008, 388.163
1009, 388.163
1010, 388.163
1011, 388.163
1012, 388.163
1013, 388.163
1014, 388.163
1015, 388.163
1016, 388.163
1017, 388.163
1018, 388.163
1019, 388.163
1020, 388.163
1021, 388.163
1022, 388.163
1023, 388.163
1024, 388.163
1025, 386.345
1026, 388.163
1027, 389.982
1028, 389.982
1029, 389.982
1030, 389.982
1031, 389.982
1032, 389.982
1033, 389.982
1034, 389.982
1035, 389.982
1036, 389.982
1037, 389.982
1038, 389.982
1039, 389.982
1040, 389.982
1041, 389.982
1042, 389.982
1043, 389.982
1044, 389.982
1045, 389.982
1046, 389.982
1047, 389.982
1048, 389.982
1049, 389.982
1050, 389.982
1051, 389.982
1052, 389.982
1053, 389.982
1054, 389.982
1055, 389.982
1056, 389.982
1057, 389.982
1058, 391.800
1059, 391.800
1060, 391.800
1061, 391.800
1062, 391.800
1063, 391.800
1064, 391.800
1065, 391.800
1066, 391.800
1067, 391.800
1068, 391.800
1069, 391.800
1070, 391.800
1071, 391.800
1072, 391.800
1073, 391.800
1074, 391.800
1075, 391.800
1076, 391.800
1077, 391.800
1078, 391.800
1079, 391.800
1080, 391.800
1081, 391.800
1082, 391.800
1083, 391.800
1084, 391.800
1085, 391.800
1086, 391.800
1087, 391.800
1088, 391.800
1089, 389.982
1090, 391.800
1091, 393.496
1092, 393.496
1093, 393.496
1094, 393.496
1095, 393.496
1096, 393.496
1097, 393.496
1098, 393.496
1099, 393.496
1100, 393.496
1101, 393.496
1102, 393.496
1103, 393.496
1104, 393.496
1105, 393.496
1106, 393.496
1107, 393.496
1108, 393.496
1109, 393.496
1110, 393.496
1111, 393.496
1112, 393.496
1113, 393.496
1114, 393.496
1115, 393.496
1116, 393.496
1117, 393.496
1118, 393.496
1119, 393.496
1120, 393.496
1121, 393.496
1122, 393.496
1123, 391.800
1124, 393.496
1125, 393.619
1126, 393.619
1127, 393.619
1128, 393.619
1129, 393.619
1130, 393.619
1131, 393.619
1132, 393.619
1133, 393.619
1134, 393.619
1135, 393.619
1136, 393.619
1137, 393.619
1138, 393.619
1139, 393.619
1140, 393.619
1141, 393.619
1142, 393.619
1143, 393.619
1144, 393.619
1145, 393.619
1146, 393.619
1147, 393.619
1148, 393.619
1149, 393.619
1150, 393.619
1151, 393.619
1152, 393.619
1153, 393.619
1154, 393.619
1155, 393.619
1156, 393.619
1157, 393.619
1158, 395.437
1159, 395.437
1160, 395.437
1161, 395.437
1162, 395.437
1163, 395.437
1164, 395.437
1165, 395.437
1166, 395.437
1167, 395.437
1168, 395.437
1169, 395.437
1170, 395.437
1171, 395.437
1172, 395.437
1173, 395.437
1174, 395.437
1175, 395.437
1176, 395.437
1177, 395.437
1178, 395.437
1179, 395.437
1180, 395.437
1181, 395.437
1182, 395.437
1183, 395.437
1184, 395.437
1185, 395.437
1186, 395.437
1187, 395.437
1188, 395.437
1189, 395.437
1190, 395.437
1191, 393.619
1192, 395.437
1193, 397.255
1194, 397.255
1195, 397.255
1196, 397.255
1197, 397.255
1198, 397.255
1199, 397.255
1200, 397.255
1201, 397.255
1202, 397.255
1203, 397.255
1204, 397.255
1205, 397.255
1206, 397.255
1207, 397.255
1208, 397.255
1209, 397.255
1210, 397.255
1211, 397.255
1212, 397.255
1213, 397.255
1214, 397.255
1215, 397.255
1216, 397.255
1217, 397.255
1218, 397.255
1219, 397.255
1220, 397.255
1221, 397.255
1222, 397.255
1223, 397.255
1224, 397.255
1225, 397.255
1226, 397.255
1227, 395.437
1228, 397.255
1229, 399.074
1230, 399.074
1231, 399.074
1232, 399.074
1233, 399.074
1234, 399.074
1235, 399.074
1236, 399.074
1237, 399.074
1238, 399.074
1239, 399.074
1240, 399.074
1241, 399.074
1242, 399.074
1243, 399.074
1244, 399.074
1245, 399.074
1246, 399.074
1247, 399.074
1248, 399.074
1249, 399.074
1250, 399.074
1251, 399.074
1252, 399.074
1253, 399.074
1254, 399.074
1255, 399.074
1256, 399.074
1257, 399.074
1258, 399.074
1259, 399.074
1260, 399.074
1261, 399.074
1262, 399.074
1263, 399.074
1264, 397.255
1265, 399.074
1266, 400.892
1267, 400.892
1268, 400.892
1269, 400.892
1270, 400.892
1271, 400.892
1272, 400.892
1273, 400.892
1274, 400.892
1275, 400.892
1276, 400.892
1277, 400.892
1278, 400.892
1279, 400.892
1280, 400.892
1281, 400.892
1282, 400.892
1283, 400.892
1284, 400.892
1285, 400.892
1286, 400.892
1287, 400.892
1288, 400.892
1289, 400.892
1290, 400.892
1291, 400.892
1292, 400.892
1293, 400.892
1294, 400.892
1295, 400.892
1296, 400.892
1297, 400.892
1298, 400.892
1299, 400.892
1300, 400.892
1301, 400.892
1302, 399.074
1303, 400.892
1304, 402.537
1305, 402.537
1306, 402.537
1307, 402.537
1308, 402.537
1309, 402.537
1310, 402.537
1311, 402.537
1312, 402.537
1313, 402.537
1314, 402.537
1315, 402.537
1316, 402.537
1317, 402.537
1318, 402.537
1319, 402.537
1320, 402.537
1321, 402.537
1322, 402.537
1323, 402.537
1324, 402.537
1325, 402.537
1326, 402.537
1327, 402.537
1328, 402.537
1329, 402.537
1330, 402.537
1331, 402.537
1332, 402.537
1333, 402.537
1334, 402.537
1335, 402.537
1336, 402.537
1337, 402.537
1338, 402.537
1339, 402.537
1340, 402.537
1341, 400.892
1342, 402.537
1343, 402.711
1344, 402.711
1345, 402.711
1346, 402.711
1347, 402.711
1348, 402.711
1349, 402.711
1350, 402.711
1351, 402.711
1352, 402.711
1353, 402.711
1354, 402.711
1355, 402.711
1356, 402.711
1357, 402.711
1358, 402.711
1359, 402.711
1360, 402.711
1361, 402.711
1362, 402.711
1363, 402.711
1364, 402.711
1365, 402.711
1366, 402.711
1367, 402.711
1368, 402.711
1369, 402.711
1370, 402.711
1371, 402.711
1372, 402.711
1373, 402.711
1374, 402.711
1375, 402.711
1376, 402.711
1377, 402.711
1378, 402.711
1379, 402.711
1380, 402.711
1381, 404.529
1382, 404.529
1383, 404.529
1384, 404.529
1385, 404.529
1386, 404.529
1387, 404.529
1388, 404.529
1389, 404.529
1390, 404.529
1391, 404.529
1392, 404.529
1393, 404.529
1394, 404.529
1395, 404.529
1396, 404.529
1397, 404.529
1398, 404.529
1399, 404.529
1400, 404.529
1401, 404.529
1402, 404.529
1403, 404.529
1404, 404.529
1405, 404.529
1406, 404.529
1407, 404.529
1408, 404.529
1409, 404.529
1410, 404.529
1411, 404.529
1412, 404.529
1413, 404.529
1414, 404.529
1415, 404.529
1416, 404.529
1417, 404.529
1418, 404.529
1419, 402.711
1420, 404.529
1421, 406.348
1422, 406.348
1423, 406.348
1424, 406.348
1425, 406.348
1426, 406.348
1427, 406.348
1428, 406.348
1429, 406.348
1430, 406.348
1431, 406.348
1432, 406.348
1433, 406.348
1434, 406.348
1435, 406.348
1436, 406.348
1437, 406.348
1438, 406.348
1439, 406.348
1440, 406.348
1441, 406.348
1442, 406.348
1443, 406.348
1444, 406.348
1445, 406.348
1446, 406.348
1447, 406.348
1448, 406.348
1449, 406.348
1450, 406.348
1451, 406.348
1452, 406.348
1453, 406.348
1454, 406.348
1455, 406.348
1456, 406.348
1457, 406.348
1458, 406.348
1459, 406.348
1460, 404.529
1461, 406.348
1462, 408.166
1463, 408.166
1464, 408.166
1465, 408.166
1466, 408.166
1467, 408.166
1468, 408.166
1469, 408.166
1470, 408.166
1471, 408.166
1472, 408.166
1473, 408.166
1474, 408.166
1475, 408.166
1476, 408.166
1477, 408.166
1478, 408.166
1479, 408.166
1480, 408.166
1481, 408.166
1482, 408.166
1483, 408.166
1484, 408.166
1485, 408.166
1486, 408.166
1487, 408.166
1488, 408.166
1489, 408.166
1490, 408.166
1491, 408.166
1492, 408.166
1493, 408.166
1494, 408.166
1495, 408.166
1496, 408.166
1497, 408.166
1498, 408.166
1499, 408.166
1500, 408.166
1501, 408.166
1502, 406.348
1503, 408.166
1504, 409.985
1505, 409.985
1506, 409.985
1507, 409.985
1508, 409.985
1509, 409.985
1510, 409.985
1511, 409.985
1512, 409.985
1513, 409.985
1514, 409.985
1515, 409.985
1516, 409.985
1517, 409.985
1518, 409.985
1519, 409.985
1520, 409.985
1521, 409.985
1522, 409.985
1523, 409.985
1524, 409.985
1525, 409.985
1526, 409.985
1527, 409.985
1528, 409.985
1529, 409.985
1530, 409.985
1531, 409.985
1532, 409.985
1533, 409.985
1534, 409.985
1535, 409.985
1536, 409.985
1537, 409.985
1538, 409.985
1539, 409.985
1540, 409.985
1541, 409.985
1542, 409.985
1543, 409.985
1544, 409.985
1545, 408.166
1546, 409.985
1547, 411.084
1548, 411.084
1549, 411.084
1550, 411.084
1551, 411.084
1552, 411.084
1553, 411.084
1554, 411.084
1555, 411.084
1556, 411.084
1557, 411.084
1558, 411.084
1559, 411.084
1560, 411.084
1561, 411.084
1562, 411.084
1563, 411.084
1564, 411.084
1565, 411.084
1566, 411.084
1567, 411.084
1568, 411.084
1569, 411.084
1570, 411.084
1571, 411.084
1572, 411.084
1573, 411.084
1574, 411.084
1575, 411.084
1576, 411.084
1577, 411.084
1578, 411.084
1579, 411.084
1580, 411.084
1581, 411.084
1582, 411.084
1583, 411.084
1584, 411.084
1585, 411.084
1586, 411.084
1587, 411.084
1588, 411.084
1589, 409.985
1590, 411.084
1591, 411.803
1592, 411.803
1593, 411.803
1594, 411.803
1595, 411.803
1596, 411.803
1597, 411.803
1598, 411.803
1599, 411.803
1600, 411.803
1601, 411.803
1602, 411.803
1603, 411.803
1604, 411.803
1605, 411.803
1606, 411.803
1607, 411.803
1608, 411.803
1609, 411.803
1610, 411.803
1611, 411.803
1612, 411.803
1613, 411.803
1614, 411.803
1615, 411.803
1616, 411.803
1617, 411.803
1618, 411.803
1619, 411.803
1620, 411.803
1621, 411.803
1622, 411.803
1623, 411.803
1624, 411.803
1625, 411.803
1626, 411.803
1627, 411.803
1628, 411.803
1629, 411.803
1630, 411.803
1631, 411.803
1632, 411.803
1633, 411.803
1634, 411.084
1635, 411.803
1636, 413.622
1637, 413.622
1638, 413.622
1639, 413.622
1640, 413.622
1641, 413.622
1642, 413.622
1643, 413.622
1644, 413.622
1645, 413.622
1646, 413.622
1647, 413.622
1648, 413.622
1649, 413.622
1650, 413.622
1651, 413.622
1652, 413.622
1653, 413.622
1654, 413.622
1655, 413.622
1656, 413.622
1657, 413.622
1658, 413.622
1659, 413.622
1660, 413.622
1661, 413.622
1662, 413.622
1663, 413.622
1664, 413.622
1665, 413.622
1666, 413.622
1667, 413.622
1668, 413.622
1669, 413.622
1670, 413.622
1671, 413.622
1672, 413.622
1673, 413.622
1674, 413.622
1675, 413.622
1676, 413.622
1677, 413.622
1678, 413.622
1679, 413.622
1680, 411.803
1681, 413.622
1682, 415.440
1683, 415.440
1684, 415.440
1685, 415.440
1686, 415.440
1687, 415.440
1688, 415.440
1689, 415.440
1690, 415.440
1691, 415.440
1692, 415.440
1693, 415.440
1694, 415.440
1695, 415.440
1696, 415.440
1697, 415.440
1698, 415.440
1699, 415.440
1700, 415.440
1701, 415.440
1702, 415.440
1703, 415.440
1704, 415.440
1705, 415.440
1706, 415.440
1707, 415.440
1708, 415.440
1709, 415.440
1710, 415.440
1711, 415.440
1712, 415.440
1713, 415.440
1714, 415.440
1715, 415.440
1716, 415.440
1717, 415.440
1718, 415.440
1719, 415.440
1720, 415.440
1721, 415.440
1722, 415.440
1723, 415.440
1724, 415.440
1725, 415.440
1726, 415.440
1727, 413.622
1728, 415.440
1729, 417.259
1730, 417.259
1731, 417.259
1732, 417.259
1733, 417.259
1734, 417.259
1735, 417.259
1736, 417.259
1737, 417.259
1738, 417.259
1739, 417.259
1740, 417.259
1741, 417.259
1742, 417.259
1743, 417.259
1744, 417.259
1745, 417.259
1746, 417.259
1747, 417.259
1748, 417.259
1749, 417.259
1750, 417.259
1751, 417.259
1752, 417.259
1753, 417.259
1754, 417.259
1755, 417.259
1756, 417.259
1757, 417.259
1758, 417.259
1759, 417.259
1760, 417.259
1761, 417.259
1762, 417.259
1763, 417.259
1764, 417.259
1765, 417.259
1766, 417.259
1767, 417.259
1768, 417.259
1769, 417.259
1770, 417.259
1771, 417.259
1772, 417.259
1773, 417.259
1774, 417.259
1775, 415.440
1776, 417.259
1777, 419.077
1778, 419.077
1779, 419.077
1780, 419.077
1781, 419.077
1782, 419.077
1783, 419.077
1784, 419.077
1785, 419.077
1786, 419.077
1787, 419.077
1788, 419.077
1789, 419.077
1790, 419.077
1791, 419.077
1792, 419.077
1793, 419.077
1794, 419.077
1795, 419.077
1796, 419.077
1797, 419.077
1798, 419.077
1799, 419.077
1800, 419.077
1801, 419.077
1802, 419.077
1803, 419.077
1804, 419.077
1805, 419.077
1806, 419.077
1807, 419.077
1808, 419.077
1809, 419.077
1810, 419.077
1811, 419.077
1812, 419.077
1813, 419.077
1814, 419.077
1815, 419.077
1816, 419.077
1817, 419.077
1818, 419.077
1819, 419.077
1820, 419.077
1821, 419.077
1822, 419.077
1823, 419.077
1824, 417.259
1825, 419.077
1826, 417.259
1827, 419.077
1828, 420.896
1829, 420.896
1830, 420.896
1831, 420.896
1832, 420.896
1833, 420.896
1834, 420.896
1835, 420.896
1836, 420.896
1837, 420.896
1838, 420.896
1839, 420.896
1840, 420.896
1841, 420.896
1842, 420.896
1843, 420.896
1844, 420.896
1845, 420.896
1846, 420.896
1847, 420.896
1848, 420.896
1849, 420.896
1850, 420.896
1851, 420.896
1852, 420.896
1853, 420.896
1854, 420.896
1855, 420.896
1856, 420.896
1857, 420.896
1858, 420.896
1859, 420.896
1860, 420.896
1861, 420.896
1862, 420.896
1863, 420.896
1864, 420.896
1865, 420.896
1866, 420.896
1867, 420.896
1868, 420.896
1869, 420.896
1870, 420.896
1871, 420.896
1872, 420.896
1873, 420.896
1874, 420.896
1875, 420.896
1876, 420.896
1877, 419.077
1878, 420.896
1879, 419.077
1880, 420.896
1881, 419.077
1882, 420.896
1883, 422.714
1884, 422.714
1885, 422.714
1886, 422.714
1887, 422.714
1888, 422.714
1889, 422.714
1890, 422.714
1891, 422.714
1892, 422.714
1893, 422.714
1894, 422.714
1895, 422.714
1896, 422.714
1897, 422.714
1898, 422.714
1899, 422.714
1900, 422.714
1901, 422.714
1902, 422.714
1903, 422.714
1904, 422.714
1905, 422.714
1906, 422.714
1907, 422.714
1908, 422.714
1909, 422.714
1910, 422.714
1911, 422.714
1912, 422.714
1913, 422.714
1914, 422.714
1915, 422.714
1916, 422.714
1917, 422.714
1918, 422.714
1919, 422.714
1920, 422.714
1921, 422.714
1922, 422.714
1923, 422.714
1924, 422.714
1925, 422.714
1926, 422.714
1927, 422.714
1928, 422.714
1929, 422.714
1930, 422.714
1931, 422.714
1932, 422.714
1933, 422.714
1934, 422.714
1935, 420.896
1936, 422.714
1937, 424.533
1938, 424.533
1939, 424.533
1940, 424.533
1941, 424.533
1942, 424.533
1943, 424.533
1944, 424.533
1945, 424.533
1946, 424.533
1947, 424.533
1948, 424.533
1949, 424.533
1950, 424.533
1951, 424.533
1952, 424.533
1953, 424.533
1954, 424.533
1955, 424.533
1956, 424.533
1957, 424.533
1958, 424.533
1959, 424.533
1960, 424.533
1961, 424.533
1962, 424.533
1963, 424.533
1964, 424.533
1965, 424.533
1966, 424.533
1967, 424.533
1968, 424.533
1969, 424.533
1970, 424.533
1971, 424.533
1972, 424.533
1973, 424.533
1974, 424.533
1975, 424.533
1976, 424.533
1977, 424.533
1978, 424.533
1979, 424.533
1980, 424.533
1981, 424.533
1982, 424.533
1983, 424.533
1984, 424.533
1985, 424.533
1986, 424.533
1987, 424.533
1988, 424.533
1989, 424.533
1990, 422.714
1991, 424.533
1992, 426.351
1993, 426.351
1994, 426.351
1995, 426.351
1996, 426.351
1997, 426.351
1998, 426.351
1999, 426.351
2000, 426.351
2001, 426.351
2002, 426.351
2003, 426.351
2004, 426.351
2005, 426.351
2006, 426.351
2007, 426.351
2008, 426.351
2009, 426.351
2010, 426.351
2011, 426.351
2012, 426.351
2013, 426.351
2014, 426.351
2015, 426.351
2016, 426.351
2017, 426.351
2018, 426.351
2019, 426.351
2020, 426.351
2021, 426.351
2022, 426.351
2023, 426.351
2024, 426.351
2025, 426.351
2026, 426.351
2027, 426.351
2028, 426.351
2029, 426.351
2030, 426.351
2031, 426.351
2032, 426.351
2033, 426.351
2034, 426.351
2035, 426.351
2036, 426.351
2037, 426.351
2038, 426.351
2039, 426.351
2040, 426.351
2041, 426.351
2042, 426.351
2043, 426.351
2044, 426.351
2045, 426.351
2046, 424.533
2047, 426.351
2048, 424.533
2049, 426.351
2050, 424.533
2051, 426.351
2052, 426.535
2053, 426.535
2054, 426.535
2055, 426.535
2056, 426.535
2057, 426.535
2058, 426.535
2059, 426.535
2060, 426.535
2061, 426.535
2062, 426.535
2063, 426.535
2064, 426.535
2065, 426.535
2066, 426.535
2067, 426.535
2068, 426.535
2069, 426.535
2070, 426.535
2071, 426.535
2072, 426.535
2073, 426.535
2074, 426.535
2075, 426.535
2076, 426.535
2077, 426.535
2078, 426.535
2079, 426.535
2080, 426.535
2081, 426.535
2082, 426.535
2083, 426.535
2084, 426.535
2085, 426.535
2086, 426.535
2087, 426.535
2088, 426.535
2089, 426.535
2090, 426.535
2091, 426.535
2092, 426.535
2093, 426.535
2094, 426.535
2095, 426.535
2096, 426.535
2097, 426.535
2098, 426.535
2099, 426.535
2100, 426.535
2101, 426.535
2102, 426.535
2103, 426.535
2104, 426.535
2105, 426.535
2106, 426.535
2107, 426.535
2108, 426.535
2109, 426.351
2110, 426.535
2111, 428.170
2112, 428.170
2113, 428.170
2114, 428.170
2115, 428.170
2116, 428.170
2117, 428.170
2118, 428.170
2119, 428.170
2120, 428.170
2121, 428.170
2122, 428.170
2123, 428.170
2124, 428.170
2125, 428.170
2126, 428.170
2127, 428.170
2128, 428.170
2129, 428.170
2130, 428.170
2131, 428.170
2132, 428.170
2133, 428.170
2134, 428.170
2135, 428.170
2136, 428.170
2137, 428.170
2138, 428.170
2139, 428.170
2140, 428.170
2141, 428.170
2142, 428.170
2143, 428.170
2144, 428.170
2145, 428.170
2146, 428.170
2147, 428.170
2148, 428.170
2149, 428.170
2150, 428.170
2151, 428.170
2152, 428.170
2153, 428.170
2154, 428.170
2155, 428.170
2156, 428.170
2157, 428.170
2158, 428.170
2159, 428.170
2160, 428.170
2161, 428.170
2162, 428.170
2163, 428.170
2164, 428.170
2165, 428.170
2166, 428.170
2167, 428.170
2168, 428.170
2169, 426.535
2170, 428.170
2171, 429.988
2172, 429.988
2173, 429.988
2174, 429.988
2175, 429.988
2176, 429.988
2177, 429.988
2178, 429.988
2179, 429.988
2180, 429.988
2181, 429.988
2182, 429.988
2183, 429.988
2184, 429.988
2185, 429.988
2186, 429.988
2187, 429.988
2188, 429.988
2189, 429.988
2190, 429.988
2191, 429.988
2192, 429.988
2193, 429.988
2194, 429.988
2195, 429.988
2196, 429.988
2197, 429.988
2198, 429.988
2199, 429.988
2200, 429.988
2201, 429.988
2202, 429.988
2203, 429.988
2204, 429.988
2205, 429.988
2206, 429.988
2207, 429.988
2208, 429.988
2209, 429.988
2210, 429.988
2211, 429.988
2212, 429.988
2213, 429.988
2214, 429.988
2215, 429.988
2216, 429.988
2217, 429.988
2218, 429.988
2219, 429.988
2220, 429.988
2221, 429.988
2222, 429.988
2223, 429.988
2224, 429.988
2225, 429.988
2226, 429.988
2227, 429.988
2228, 429.988
2229, 429.988
2230, 428.170
2231, 429.988
2232, 428.170
2233, 429.988
2234, 431.807
2235, 431.807
2236, 431.807
2237, 431.807
2238, 431.807
2239, 431.807
2240, 431.807
2241, 431.807
2242, 431.807
2243, 431.807
2244, 431.807
2245, 431.807
2246, 431.807
2247, 431.807
2248, 431.807
2249, 431.807
2250, 431.807
2251, 431.807
2252, 431.807
2253, 431.807
2254, 431.807
2255, 431.807
2256, 431.807
2257, 431.807
2258, 431.807
2259, 431.807
2260, 431.807
2261, 431.807
2262, 431.807
2263, 431.807
2264, 431.807
2265, 431.807
2266, 431.807
2267, 431.807
2268, 431.807
2269, 431.807
2270, 431.807
2271, 431.807
2272, 431.807
2273, 431.807
2274, 431.807
2275, 431.807
2276, 431.807
2277, 431.807
2278, 431.807
2279, 431.807
2280, 431.807
2281, 431.807
2282, 431.807
2283, 431.807
2284, 431.807
2285, 431.807
2286, 431.807
2287, 431.807
2288, 431.807
2289, 431.807
2290, 431.807
2291, 431.807
2292, 431.807
2293, 431.807
2294, 431.807
2295, 429.988
2296, 431.807
2297, 433.359
2298, 433.359
2299, 433.359
2300, 433.359
2301, 433.359
2302, 433.359
2303, 433.359
2304, 433.359
2305, 433.359
2306, 433.359
2307, 433.359
2308, 433.359
2309, 433.359
2310, 433.359
2311, 433.359
2312, 433.359
2313, 433.359
2314, 433.359
2315, 433.359
2316, 433.359
2317, 433.359
2318, 433.359
2319, 433.359
2320, 433.359
2321, 433.359
2322, 433.359
2323, 433.359
2324, 433.359
2325, 433.359
2326, 433.359
2327, 433.359
2328, 433.359
2329, 433.359
2330, 433.359
2331, 433.359
2332, 433.359
2333, 433.359
2334, 433.359
2335, 433.359
2336, 433.359
2337, 433.359
2338, 433.359
2339, 433.359
2340, 433.359
2341, 433.359
2342, 433.359
2343, 433.359
2344, 433.359
2345, 433.359
2346, 433.359
2347, 433.359
2348, 433.359
2349, 433.359
2350, 433.359
2351, 433.359
2352, 433.359
2353, 433.359
2354, 433.359
2355, 433.359
2356, 433.359
2357, 433.359
2358, 433.359
2359, 431.807
2360, 433.359
2361, 431.807
2362, 433.359
2363, 433.625
2364, 433.625
2365, 433.625
2366, 433.625
2367, 433.625
2368, 433.625
2369, 433.625
2370, 433.625
2371, 433.625
2372, 433.625
2373, 433.625
2374, 433.625
2375, 433.625
2376, 433.625
2377, 433.625
2378, 433.625
2379, 433.625
2380, 433.625
2381, 433.625
2382, 433.625
2383, 433.625
2384, 433.625
2385, 433.625
2386, 433.625
2387, 433.625
2388, 433.625
2389, 433.625
2390, 433.625
2391, 433.625
2392, 433.625
2393, 433.625
2394, 433.625
2395, 433.625
2396, 433.625
2397, 433.625
2398, 433.625
2399, 433.625
2400, 433.625
2401, 433.625
2402, 433.625
2403, 433.625
2404, 433.625
2405, 433.625
2406, 433.625
2407, 433.625
2408, 433.625
2409, 433.625
2410, 433.625
2411, 433.625
2412, 433.625
2413, 433.625
2414, 433.625
2415, 433.625
2416, 433.625
2417, 433.625
2418, 433.625
2419, 433.625
2420, 433.625
2421, 433.625
2422, 433.625
2423, 433.625
2424, 433.625
2425, 433.625
2426, 433.625
2427, 433.359
2428, 433.625
2429, 433.359
2430, 433.625
2431, 435.444
2432, 435.444
2433, 435.444
2434, 435.444
2435, 435.444
2436, 435.444
2437, 435.444
2438, 435.444
2439, 435.444
2440, 435.444
2441, 435.444
2442, 435.444
2443, 435.444
2444, 435.444
2445, 435.444
2446, 435.444
2447, 435.444
2448, 435.444
2449, 435.444
2450, 435.444
2451, 435.444
2452, 435.444
2453, 435.444
2454, 435.444
2455, 435.444
2456, 435.444
2457, 435.444
2458, 435.444
2459, 435.444
2460, 435.444
2461, 435.444
2462, 435.444
2463, 435.444
2464, 435.444
2465, 435.444
2466, 435.444
2467, 435.444
2468, 435.444
2469, 435.444
2470, 435.444
2471, 435.444
2472, 435.444
2473, 435.444
2474, 435.444
2475, 435.444
2476, 435.444
2477, 435.444
2478, 435.444
2479, 435.444
2480, 435.444
2481, 435.444
2482, 435.444
2483, 435.444
2484, 435.444
2485, 435.444
2486, 435.444
2487, 435.444
2488, 435.444
2489, 435.444
2490, 435.444
2491, 435.444
2492, 435.444
2493, 435.444
2494, 435.444
2495, 435.444
2496, 435.444
2497, 433.625
2498, 435.444
2499, 433.625
2500, 435.444
2501, 437.262
2502, 437.262
2503, 437.262
2504, 437.262
2505, 437.262
2506, 437.262
2507, 437.262
2508, 437.262
2509, 437.262
2510, 437.262
2511, 437.262
2512, 437.262
2513, 437.262
2514, 437.262
2515, 437.262
2516, 437.262
2517, 437.262
2518, 437.262
2519, 437.262
2520, 437.262
2521, 437.262
2522, 437.262
2523, 437.262
2524, 437.262
2525, 437.262
2526, 437.262
2527, 437.262
2528, 437.262
2529, 437.262
2530, 437.262
2531, 437.262
2532, 437.262
2533, 437.262
2534, 437.262
2535, 437.262
2536, 437.262
2537, 437.262
2538, 437.262
2539, 437.262
2540, 437.262
2541, 437.262
2542, 437.262
2543, 437.262
2544, 437.262
2545, 437.262
2546, 437.262
2547, 437.262
2548, 437.262
2549, 437.262
2550, 437.262
2551, 437.262
2552, 437.262
2553, 437.262
2554, 437.262
2555, 437.262
2556, 437.262
2557, 437.262
2558, 437.262
2559, 437.262
2560, 437.262
2561, 437.262
2562, 437.262
2563, 437.262
2564, 437.262
2565, 437.262
2566, 437.262
2567, 437.262
2568, 437.262
2569, 435.444
2570, 437.262
2571, 439.080
2572, 439.080
2573, 439.080
2574, 439.080
2575, 439.080
2576, 439.080
2577, 439.080
2578, 439.080
2579, 439.080
2580, 439.080
2581, 439.080
2582, 439.080
2583, 439.080
2584, 439.080
2585, 439.080
2586, 439.080
2587, 439.080
2588, 439.080
2589, 439.080
2590, 439.080
2591, 439.080
2592, 439.080
2593, 439.080
2594, 439.080
2595, 439.080
2596, 439.080
2597, 439.080
2598, 439.080
2599, 439.080
2600, 439.080
2601, 439.080
2602, 439.080
2603, 439.080
2604, 439.080
2605, 439.080
2606, 439.080
2607, 439.080
2608, 439.080
2609, 439.080
2610, 439.080
2611, 439.080
2612, 439.080
2613, 439.080
2614, 439.080
2615, 439.080
2616, 439.080
2617, 439.080
2618, 439.080
2619, 439.080
2620, 439.080
2621, 439.080
2622, 439.080
2623, 439.080
2624, 439.080
2625, 439.080
2626, 439.080
2627, 439.080
2628, 439.080
2629, 439.080
2630, 439.080
2631, 439.080
2632, 439.080
2633, 439.080
2634, 439.080
2635, 439.080
2636, 439.080
2637, 439.080
2638, 439.080
2639, 439.080
2640, 437.262
2641, 439.080
2642, 437.262
2643, 439.080
2644, 439.530
2645, 439.530
2646, 439.530
2647, 439.530
2648, 439.530
2649, 439.530
2650, 439.530
2651, 439.530
2652, 439.530
2653, 439.530
2654, 439.530
2655, 439.530
2656, 439.530
2657, 439.530
2658, 439.530
2659, 439.530
2660, 439.530
2661, 439.530
2662, 439.530
2663, 439.530
2664, 439.530
2665, 439.530
2666, 439.530
2667, 439.530
2668, 439.530
2669, 439.530
2670, 439.530
2671, 439.530
2672, 439.530
2673, 439.530
2674, 439.530
2675, 439.530
2676, 439.530
2677, 439.530
2678, 439.530
2679, 439.530
2680, 439.530
2681, 439.530
2682, 439.530
2683, 439.530
2684, 439.530
2685, 439.530
2686, 439.530
2687, 439.530
2688, 439.530
2689, 439.530
2690, 439.530
2691, 439.530
2692, 439.530
2693, 439.530
2694, 439.530
2695, 439.530
2696, 439.530
2697, 439.530
2698, 439.530
2699, 439.530
2700, 439.530
2701, 439.530
2702, 439.530
2703, 439.530
2704, 439.530
2705, 439.530
2706, 439.530
2707, 439.530
2708, 439.530
2709, 439.530
2710, 439.530
2711, 439.530
2712, 439.530
2713, 439.530
2714, 439.530
2715, 439.080
2716, 439.530
2717, 439.080
2718, 439.530
2719, 440.899
2720, 440.899
2721, 440.899
2722, 440.899
2723, 440.899
2724, 440.899
2725, 440.899
2726, 440.899
2727, 440.899
2728, 440.899
2729, 440.899
2730, 440.899
2731, 440.899
2732, 440.899
2733, 440.899
2734, 440.899
2735, 440.899
2736, 440.899
2737, 440.899
2738, 440.899
2739, 440.899
2740, 440.899
2741, 440.899
2742, 440.899
2743, 440.899
2744, 440.899
2745, 440.899
2746, 440.899
2747, 440.899
2748, 440.899
2749, 440.899
2750, 440.899
2751, 440.899
2752, 440.899
2753, 440.899
2754, 440.899
2755, 440.899
2756, 440.899
2757, 440.899
2758, 440.899
2759, 440.899
2760, 440.899
2761, 440.899
2762, 440.899
2763, 440.899
2764, 440.899
2765, 440.899
2766, 440.899
2767, 440.899
2768, 440.899
2769, 440.899
2770, 440.899
2771, 440.899
2772, 440.899
2773, 440.899
2774, 440.899
2775, 440.899
2776, 440.899
2777, 440.899
2778, 440.899
2779, 440.899
2780, 440.899
2781, 440.899
2782, 440.899
2783, 440.899
2784, 440.899
2785, 440.899
2786, 440.899
2787, 440.899
2788, 440.899
2789, 440.899
2790, 440.899
2791, 440.899
2792, 439.530
2793, 440.899
2794, 439.530
2795, 440.899
2796, 442.717
2797, 442.717
2798, 442.717
2799, 442.717
2800, 442.717
2801, 442.717
2802, 442.717
2803, 442.717
2804, 442.717
2805, 442.717
2806, 442.717
2807, 442.717
2808, 442.717
2809, 442.717
2810, 442.717
2811, 442.717
2812, 442.717
2813, 442.717
2814, 442.717
2815, 442.717
2816, 442.717
2817, 442.717
2818, 442.717
2819, 442.717
2820, 442.717
2821, 442.717
2822, 442.717
2823, 442.717
2824, 442.717
2825, 442.717
2826, 442.717
2827, 442.717
2828, 442.717
2829, 442.717
2830, 442.717
2831, 442.717
2832, 442.717
2833, 442.717
2834, 442.717
2835, 442.717
2836, 442.717
2837, 442.717
2838, 442.717
2839, 442.717
2840, 442.717
2841, 442.717
2842, 442.717
2843, 442.717
2844, 442.717
2845, 442.717
2846, 442.717
2847, 442.717
2848, 442.717
2849, 442.717
2850, 442.717
2851, 442.717
2852, 442.717
2853, 442.717
2854, 442.717
2855, 442.717
2856, 442.717
2857, 442.717
2858, 442.717
2859, 442.717
2860, 442.717
2861, 442.717
2862, 442.717
2863, 442.717
2864, 442.717
2865, 442.717
2866, 442.717
2867, 442.717
2868, 442.717
2869, 442.717
2870, 442.717
2871, 440.899
2872, 442.717
2873, 440.899
2874, 442.717
2875, 440.899
2876, 442.717
2877, 444.536
2878, 444.536
2879, 444.536
2880, 444.536
2881, 444.536
2882, 444.536
2883, 444.536
2884, 444.536
2885, 444.536
2886, 444.536
2887, 444.536
2888, 444.536
2889, 444.536
2890, 444.536
2891, 444.536
2892, 444.536
2893, 444.536
2894, 444.536
2895, 444.536
2896, 444.536
2897, 444.536
2898, 444.536
2899, 444.536
2900, 444.536
2901, 444.536
2902, 444.536
2903, 444.536
2904, 444.536
2905, 444.536
2906, 444.536
2907, 444.536
2908, 444.536
2909, 444.536
2910, 444.536
2911, 444.536
2912, 444.536
2913, 444.536
2914, 444.536
2915, 444.536
2916, 444.536
2917, 444.536
2918, 444.536
2919, 444.536
2920, 444.536
2921, 444.536
2922, 444.536
2923, 444.536
2924, 444.536
2925, 444.536
2926, 444.536
2927, 444.536
2928, 444.536
2929, 444.536
2930, 444.536
2931, 444.536
2932, 444.536
2933, 444.536
2934, 444.536
2935, 444.536
2936, 444.536
2937, 444.536
2938, 444.536
2939, 444.536
2940, 444.536
2941, 444.536
2942, 444.536
2943, 444.536
2944, 444.536
2945, 444.536
2946, 444.536
2947, 444.536
2948, 444.536
2949, 444.536
2950, 444.536
2951, 444.536
2952, 444.536
2953, 444.536
2954, 444.536
2955, 442.717
2956, 444.536
2957, 442.717
2958, 444.536
2959, 445.007
2960, 445.007
2961, 445.007
2962, 445.007
2963, 445.007
2964, 445.007
2965, 445.007
2966, 445.007
2967, 445.007
2968, 445.007
2969, 445.007
2970, 445.007
2971, 445.007
2972, 445.007
2973, 445.007
2974, 445.007
2975, 445.007
2976, 445.007
2977, 445.007
2978, 445.007
2979, 445.007
2980, 445.007
2981, 445.007
2982, 445.007
2983, 445.007
2984, 445.007
2985, 445.007
2986, 445.007
2987, 445.007
2988, 445.007
2989, 445.007
2990, 445.007
2991, 445.007
2992, 445.007
2993, 445.007
2994, 445.007
2995, 445.007
2996, 445.007
2997, 445.007
2998, 445.007
2999, 445.007
3000, 445.007
3001, 445.007
3002, 445.007
3003, 445.007
3004, 445.007
3005, 445.007
3006, 445.007
3007, 445.007
3008, 445.007
3009, 445.007
3010, 445.007
3011, 445.007
3012, 445.007
3013, 445.007
3014, 445.007
3015, 445.007
3016, 445.007
3017, 445.007
3018, 445.007
3019, 445.007
3020, 445.007
3021, 445.007
3022, 445.007
3023, 445.007
3024, 445.007
3025, 445.007
3026, 445.007
3027, 445.007
3028, 445.007
3029, 445.007
3030, 445.007
3031, 445.007
3032, 445.007
3033, 445.007
3034, 445.007
3035, 445.007
3036, 445.007
3037, 445.007
3038, 445.007
3039, 444.536
3040, 445.007
3041, 444.536
3042, 445.007
3043, 446.354
3044, 446.354
3045, 446.354
3046, 446.354
3047, 446.354
3048, 446.354
3049, 446.354
3050, 446.354
3051, 446.354
3052, 446.354
3053, 446.354
3054, 446.354
3055, 446.354
3056, 446.354
3057, 446.354
3058, 446.354
3059, 446.354
3060, 446.354
3061, 446.354
3062, 446.354
3063, 446.354
3064, 446.354
3065, 446.354
3066, 446.354
3067, 446.354
3068, 446.354
3069, 446.354
3070, 446.354
3071, 446.354
3072, 446.354
3073, 446.354
3074, 446.354
3075, 446.354
3076, 446.354
3077, 446.354
3078, 446.354
3079, 446.354
3080, 446.354
3081, 446.354
3082, 446.354
3083, 446.354
3084, 446.354
3085, 446.354
3086, 446.354
3087, 446.354
3088, 446.354
3089, 446.354
3090, 446.354
3091, 446.354
3092, 446.354
3093, 446.354
3094, 446.354
3095, 446.354
3096, 446.354
3097, 446.354
3098, 446.354
3099, 446.354
3100, 446.354
3101, 446.354
3102, 446.354
3103, 446.354
3104, 446.354
3105, 446.354
3106, 446.354
3107, 446.354
3108, 446.354
3109, 446.354
3110, 446.354
3111, 446.354
3112, 446.354
3113, 446.354
3114, 446.354
3115, 446.354
3116, 446.354
3117, 446.354
3118, 446.354
3119, 446.354
3120, 446.354
3121, 446.354
3122, 446.354
3123, 446.354
3124, 446.354
3125, 445.007
3126, 446.354
3127, 445.007
3128, 446.354
3129, 448.173
3130, 448.173
3131, 448.173
3132, 448.173
3133, 448.173
3134, 448.173
3135, 448.173
3136, 448.173
3137, 448.173
3138, 448.173
3139, 448.173
3140, 448.173
3141, 448.173
3142, 448.173
3143, 448.173
3144, 448.173
3145, 448.173
3146, 448.173
3147, 448.173
3148, 448.173
3149, 448.173
3150, 448.173
3151, 448.173
3152, 448.173
3153, 448.173
3154, 448.173
3155, 448.173
3156, 448.173
3157, 448.173
3158, 448.173
3159, 448.173
3160, 448.173
3161, 448.173
3162, 448.173
3163, 448.173
3164, 448.173
3165, 448.173
3166, 448.173
3167, 448.173
3168, 448.173
3169, 448.173
3170, 448.173
3171, 448.173
3172, 448.173
3173, 448.173
3174, 448.173
3175, 448.173
3176, 448.173
3177, 448.173
3178, 448.173
3179, 448.173
3180, 448.173
3181, 448.173
3182, 448.173
3183, 448.173
3184, 448.173
3185, 448.173
3186, 448.173
3187, 448.173
3188, 448.173
3189, 448.173
3190, 448.173
3191, 448.173
3192, 448.173
3193, 448.173
3194, 448.173
3195, 448.173
3196, 448.173
3197, 448.173
3198, 448.173
3199, 448.173
3200, 448.173
3201, 448.173
3202, 448.173
3203, 448.173
3204, 448.173
3205, 448.173
3206, 448.173
3207, 448.173
3208, 448.173
3209, 448.173
3210, 448.173
3211, 448.173
3212, 448.173
3213, 446.354
3214, 448.173
3215, 446.354
3216, 448.173
3217, 446.354
3218, 448.173
3219, 446.354
3220, 448.173
3221, 449.750
3222, 449.750
3223, 449.750
3224, 449.750
3225, 449.750
3226, 449.750
3227, 449.750
3228, 449.750
3229, 449.750
3230, 449.750
3231, 449.750
3232, 449.750
3233, 449.750
3234, 449.750
3235, 449.750
3236, 449.750
3237, 449.750
3238, 449.750
3239, 449.750
3240, 449.750
3241, 449.750
3242, 449.750
3243, 449.750
3244, 449.750
3245, 449.750
3246, 449.750
3247, 449.750
3248, 449.750
3249, 449.750
3250, 449.750
3251, 449.750
3252, 449.750
3253, 449.750
3254, 449.750
3255, 449.750
3256, 449.750
3257, 449.750
3258, 449.750
3259, 449.750
3260, 449.750
3261, 449.750
3262, 449.750
3263, 449.750
3264, 449.750
3265, 449.750
3266, 449.750
3267, 449.750
3268, 449.750
3269, 449.750
3270, 449.750
3271, 449.750
3272, 449.750
3273, 449.750
3274, 449.750
3275, 449.750
3276, 449.750
3277, 449.750
3278, 449.750
3279, 449.750
3280, 449.750
3281, 449.750
3282, 449.750
3283, 449.750
3284, 449.750
3285, 449.750
3286, 449.750
3287, 449.750
3288, 449.750
3289, 449.750
3290, 449.750
3291, 449.750
3292, 449.750
3293, 449.750
3294, 449.750
3295, 449.750
3296, 449.750
3297, 449.750
3298, 449.750
3299, 449.750
3300, 449.750
3301, 449.750
3302, 449.750
3303, 449.750
3304, 449.750
3305, 449.750
3306, 449.750
3307, 449.750
3308, 449.750
3309, 448.173
3310, 449.750
3311, 448.173
3312, 449.750
3313, 449.991
3314, 449.991
3315, 449.991
3316, 449.991
3317, 449.991
3318, 449.991
3319, 449.991
3320, 449.991
3321, 449.991
3322, 449.991
3323, 449.991
3324, 449.991
3325, 449.991
3326, 449.991
3327, 449.991
3328, 449.991
3329, 449.991
3330, 449.991
3331, 449.991
3332, 449.991
3333, 449.991
3334, 449.991
3335, 449.991
3336, 449.991
3337, 449.991
3338, 449.991
3339, 449.991
3340, 449.991
3341, 449.991
3342, 449.991
3343, 449.991
3344, 449.991
3345, 449.991
3346, 449.991
3347, 449.991
3348, 449.991
3349, 449.991
3350, 449.991
3351, 449.991
3352, 449.991
3353, 449.991
3354, 449.991
3355, 449.991
3356, 449.991
3357, 449.991
3358, 449.991
3359, 449.991
3360, 449.991
3361, 449.991
3362, 449.991
3363, 449.991
3364, 449.991
3365, 449.991
3366, 449.991
3367, 449.991
3368, 449.991
3369, 449.991
3370, 449.991
3371, 449.991
3372, 449.991
3373, 449.991
3374, 449.991
3375, 449.991
3376, 449.991
3377, 449.991
3378, 449.991
3379, 449.991
3380, 449.991
3381, 449.991
3382, 449.991
3383, 449.991
3384, 449.991
3385, 449.991
3386, 449.991
3387, 449.991
3388, 449.991
3389, 449.991
3390, 449.991
3391, 449.991
3392, 449.991
3393, 449.991
3394, 449.991
3395, 449.991
3396, 449.991
3397, 449.991
3398, 449.991
3399, 449.991
3400, 449.991
3401, 449.991
3402, 449.991
3403, 449.750
3404, 449.991
3405, 449.750
3406, 449.991
3407, 449.750
3408, 449.991
3409, 451.810
3410, 451.810
3411, 451.810
3412, 451.810
3413, 451.810
3414, 451.810
3415, 451.810
3416, 451.810
3417, 451.810
3418, 451.810
3419, 451.810
3420, 451.810
3421, 451.810
3422, 451.810
3423, 451.810
3424, 451.810
3425, 451.810
3426, 451.810
3427, 451.810
3428, 451.810
3429, 451.810
3430, 451.810
3431, 451.810
3432, 451.810
3433, 451.810
3434, 451.810
3435, 451.810
3436, 451.810
3437, 451.810
3438, 451.810
3439, 451.810
3440, 451.810
3441, 451.810
3442, 451.810
3443, 451.810
3444, 451.810
3445, 451.810
3446, 451.810
3447, 451.810
3448, 451.810
3449, 451.810
3450, 451.810
3451, 451.810
3452, 451.810
3453, 451.810
3454, 451.810
3455, 451.810
3456, 451.810
3457, 451.810
3458, 451.810
3459, 451.810
3460, 451.810
3461, 451.810
3462, 451.810
3463, 451.810
3464, 451.810
3465, 451.810
3466, 451.810
3467, 451.810
3468, 451.810
3469, 451.810
3470, 451.810
3471, 451.810
3472, 451.810
3473, 451.810
3474, 451.810
3475, 451.810
3476, 451.810
3477, 451.810
3478, 451.810
3479, 451.810
3480, 451.810
3481, 451.810
3482, 451.810
3483, 451.810
3484, 451.810
3485, 451.810
3486, 451.810
3487, 451.810
3488, 451.810
3489, 451.810
3490, 451.810
3491, 451.810
3492, 451.810
3493, 451.810
3494, 451.810
3495, 451.810
3496, 451.810
3497, 451.810
3498, 451.810
3499, 451.810
3500, 451.810
3501, 451.810
3502, 449.991
3503, 451.810
3504, 449.991
3505, 451.810
3506, 453.628
3507, 453.628
3508, 453.628
3509, 453.628
3510, 453.628
3511, 453.628
3512, 453.628
3513, 453.628
3514, 453.628
3515, 453.628
3516, 453.628
3517, 453.628
3518, 453.628
3519, 453.628
3520, 453.628
3521, 453.628
3522, 453.628
3523, 453.628
3524, 453.628
3525, 453.628
3526, 453.628
3527, 453.628
3528, 453.628
3529, 453.628
3530, 453.628
3531, 453.628
3532, 453.628
3533, 453.628
3534, 453.628
3535, 453.628
3536, 453.628
3537, 453.628
3538, 453.628
3539, 453.628
3540, 453.628
3541, 453.628
3542, 453.628
3543, 453.628
3544, 453.628
3545, 453.628
3546, 453.628
3547, 453.628
3548, 453.628
3549, 453.628
3550, 453.628
3551, 453.628
3552, 453.628
3553, 453.628
3554, 453.628
3555, 453.628
3556, 453.628
3557, 453.628
3558, 453.628
3559, 453.628
3560, 453.628
3561, 453.628
3562, 453.628
3563, 453.628
3564, 453.628
3565, 453.628
3566, 453.628
3567, 453.628
3568, 453.628
3569, 453.628
3570, 453.628
3571, 453.628
3572, 453.628
3573, 453.628
3574, 453.628
3575, 453.628
3576, 453.628
3577, 453.628
3578, 453.628
3579, 453.628
3580, 453.628
3581, 453.628
3582, 453.628
3583, 453.628
3584, 453.628
3585, 453.628
3586, 453.628
3587, 453.628
3588, 453.628
3589, 453.628
3590, 453.628
3591, 453.628
3592, 453.628
3593, 453.628
3594, 453.628
3595, 453.628
3596, 453.628
3597, 453.628
3598, 453.628
3599, 453.628
3600, 453.628
3601, 451.810
3602, 453.628
3603, 451.810
3604, 453.628
3605, 451.810
3606, 453.628
3607, 451.810
3608, 453.628
3609, 451.810
3610, 453.628
3611, 453.720
3612, 453.720
3613, 453.720
3614, 453.720
3615, 453.720
3616, 453.720
3617, 453.720
3618, 453.720
3619, 453.720
3620, 453.720
3621, 453.720
3622, 453.720
3623, 453.720
3624, 453.720
3625, 453.720
3626, 453.720
3627, 453.720
3628, 453.720
3629, 453.720
3630, 453.720
3631, 453.720
3632, 453.720
3633, 453.720
3634, 453.720
3635, 453.720
3636, 453.720
3637, 453.720
3638, 453.720
3639, 453.720
3640, 453.720
3641, 453.720
3642, 453.720
3643, 453.720
3644, 453.720
3645, 453.720
3646, 453.720
3647, 453.720
3648, 453.720
3649, 453.720
3650, 453.720
3651, 453.720
3652, 453.720
3653, 453.720
3654, 453.720
3655, 453.720
3656, 453.720
3657, 453.720
3658, 453.720
3659, 453.720
3660, 453.720
3661, 453.720
3662, 453.720
3663, 453.720
3664, 453.720
3665, 453.720
3666, 453.720
3667, 453.720
3668, 453.720
3669, 453.720
3670, 453.720
3671, 453.720
3672, 453.720
3673, 453.720
3674, 453.720
3675, 453.720
3676, 453.720
3677, 453.720
3678, 453.720
3679, 453.720
3680, 453.720
3681, 453.720
3682, 453.720
3683, 453.720
3684, 453.720
3685, 453.720
3686, 453.720
3687, 453.720
3688, 453.720
3689, 453.720
3690, 453.720
3691, 453.720
3692, 453.720
3693, 453.720
3694, 453.720
3695, 453.720
3696, 453.720
3697, 453.720
3698, 453.720
3699, 453.720
3700, 453.720
3701, 453.720
3702, 453.720
3703, 453.720
3704, 453.720
3705, 453.720
3706, 453.720
3707, 453.720
3708, 453.720
3709, 453.720
3710, 453.720
3711, 453.628
3712, 453.720
3713, 453.628
3714, 453.720
3715, 455.447
3716, 455.447
3717, 455.447
3718, 455.447
3719, 455.447
3720, 455.447
3721, 455.447
3722, 455.447
3723, 455.447
3724, 455.447
3725, 455.447
3726, 455.447
3727, 455.447
3728, 455.447
3729, 455.447
3730, 455.447
3731, 455.447
3732, 455.447
3733, 455.447
3734, 455.447
3735, 455.447
3736, 455.447
3737, 455.447
3738, 455.447
3739, 455.447
3740, 455.447
3741, 455.447
3742, 455.447
3743, 455.447
3744, 455.447
3745, 455.447
3746, 455.447
3747, 455.447
3748, 455.447
3749, 455.447
3750, 455.447
3751, 455.447
3752, 455.447
3753, 455.447
3754, 455.447
3755, 455.447
3756, 455.447
3757, 455.447
3758, 455.447
3759, 455.447
3760, 455.447
3761, 455.447
3762, 455.447
3763, 455.447
3764, 455.447
3765, 455.447
3766, 455.447
3767, 455.447
3768, 455.447
3769, 455.447
3770, 455.447
3771, 455.447
3772, 455.447
3773, 455.447
3774, 455.447
3775, 455.447
3776, 455.447
3777, 455.447
3778, 455.447
3779, 455.447
3780, 455.447
3781, 455.447
3782, 455.447
3783, 455.447
3784, 455.447
3785, 455.447
3786, 455.447
3787, 455.447
3788, 455.447
3789, 455.447
3790, 455.447
3791, 455.447
3792, 455.447
3793, 455.447
3794, 455.447
3795, 455.447
3796, 455.447
3797, 455.447
3798, 455.447
3799, 455.447
3800, 455.447
3801, 455.447
3802, 455.447
3803, 455.447
3804, 455.447
3805, 455.447
3806, 455.447
3807, 455.447
3808, 455.447
3809, 455.447
3810, 455.447
3811, 455.447
3812, 455.447
3813, 455.447
3814, 455.447
3815, 455.447
3816, 455.447
3817, 453.720
3818, 455.447
3819, 453.720
3820, 455.447
3821, 453.720
3822, 455.447
3823, 456.877
3824, 456.877
3825, 456.877
3826, 456.877
3827, 456.877
3828, 456.877
3829, 456.877
3830, 456.877
3831, 456.877
3832, 456.877
3833, 456.877
3834, 456.877
3835, 456.877
3836, 456.877
3837, 456.877
3838, 456.877
3839, 456.877
3840, 456.877
3841, 456.877
3842, 456.877
3843, 456.877
3844, 456.877
3845, 456.877
3846, 456.877
3847, 456.877
3848, 456.877
3849, 456.877
3850, 456.877
3851, 456.877
3852, 456.877
3853, 456.877
3854, 456.877
3855, 456.877
3856, 456.877
3857, 456.877
3858, 456.877
3859, 456.877
3860, 456.877
3861, 456.877
3862, 456.877
3863, 456.877
3864, 456.877
3865, 456.877
3866, 456.877
3867, 456.877
3868, 456.877
3869, 456.877
3870, 456.877
3871, 456.877
3872, 456.877
3873, 456.877
3874, 456.877
3875, 456.877
3876, 456.877
3877, 456.877
3878, 456.877
3879, 456.877
3880, 456.877
3881, 456.877
3882, 456.877
3883, 456.877
3884, 456.877
3885, 456.877
3886, 456.877
3887, 456.877
3888, 456.877
3889, 456.877
3890, 456.877
3891, 456.877
3892, 456.877
3893, 456.877
3894, 456.877
3895, 456.877
3896, 456.877
3897, 456.877
3898, 456.877
3899, 456.877
3900, 456.877
3901, 456.877
3902, 456.877
3903, 456.877
3904, 456.877
3905, 456.877
3906, 456.877
3907, 456.877
3908, 456.877
3909, 456.877
3910, 456.877
3911, 456.877
3912, 456.877
3913, 456.877
3914, 456.877
3915, 456.877
3916, 456.877
3917, 456.877
3918, 456.877
3919, 456.877
3920, 456.877
3921, 456.877
3922, 456.877
3923, 456.877
3924, 456.877
3925, 456.877
3926, 456.877
3927, 456.877
3928, 455.447
3929, 456.877
3930, 455.447
3931, 456.877
3932, 455.447
3933, 456.877
3934, 455.447
3935, 456.877
3936, 457.265
3937, 457.265
3938, 457.265
3939, 457.265
3940, 457.265
3941, 457.265
3942, 457.265
3943, 457.265
3944, 457.265
3945, 457.265
3946, 457.265
3947, 457.265
3948, 457.265
3949, 457.265
3950, 457.265
3951, 457.265
3952, 457.265
3953, 457.265
3954, 457.265
3955, 457.265
3956, 457.265
3957, 457.265
3958, 457.265
3959, 457.265
3960, 457.265
3961, 457.265
3962, 457.265
3963, 457.265
3964, 457.265
3965, 457.265
3966, 457.265
3967, 457.265
3968, 457.265
3969, 457.265
3970, 457.265
3971, 457.265
3972, 457.265
3973, 457.265
3974, 457.265
3975, 457.265
3976, 457.265
3977, 457.265
3978, 457.265
3979, 457.265
3980, 457.265
3981, 457.265
3982, 457.265
3983, 457.265
3984, 457.265
3985, 457.265
3986, 457.265
3987, 457.265
3988, 457.265
3989, 457.265
3990, 457.265
3991, 457.265
3992, 457.265
3993, 457.265
3994, 457.265
3995, 457.265
3996, 457.265
3997, 457.265
3998, 457.265
3999, 457.265
4000, 457.265
4001, 457.265
4002, 457.265
4003, 457.265
4004, 457.265
4005, 457.265
4006, 457.265
4007, 457.265
4008, 457.265
4009, 457.265
4010, 457.265
4011, 457.265
4012, 457.265
4013, 457.265
4014, 457.265
4015, 457.265
4016, 457.265
4017, 457.265
4018, 457.265
4019, 457.265
4020, 457.265
4021, 457.265
4022, 457.265
4023, 457.265
4024, 457.265
4025, 457.265
4026, 457.265
4027, 457.265
4028, 457.265
4029, 457.265
4030, 457.265
4031, 457.265
4032, 457.265
4033, 457.265
4034, 457.265
4035, 457.265
4036, 457.265
4037, 457.265
4038, 457.265
4039, 457.265
4040, 457.265
4041, 457.265
4042, 457.265
4043, 457.265
4044, 457.265
4045, 456.877
4046, 457.265
4047, 456.877
4048, 457.265
4049, 456.877
4050, 457.265
4051, 456.877
4052, 457.265
4053, 456.877
4054, 457.265
4055, 459.084
4056, 459.084
4057, 459.084
4058, 459.084
4059, 459.084
4060, 459.084
4061, 459.084
4062, 459.084
4063, 459.084
4064, 459.084
4065, 459.084
4066, 459.084
4067, 459.084
4068, 459.084
4069, 459.084
4070, 459.084
4071, 459.084
4072, 459.084
4073, 459.084
4074, 459.084
4075, 459.084
4076, 459.084
4077, 459.084
4078, 459.084
4079, 459.084
4080, 459.084
4081, 459.084
4082, 459.084
4083, 459.084
4084, 459.084
4085, 459.084
4086, 459.084
4087, 459.084
4088, 459.084
4089, 459.084
4090, 459.084
4091, 459.084
4092, 459.084
4093, 459.084
4094, 459.084
4095, 459.084
4096, 459.084
4097, 459.084
4098, 459.084
4099, 459.084
4100, 459.084
4101, 459.084
4102, 459.084
4103, 459.084
4104, 459.084
4105, 459.084
4106, 459.084
4107, 459.084
4108, 459.084
4109, 459.084
4110, 459.084
4111, 459.084
4112, 459.084
4113, 459.084
4114, 459.084
4115, 459.084
4116, 459.084
4117, 459.084
4118, 459.084
4119, 459.084
4120, 459.084
4121, 459.084
4122, 459.084
4123, 459.084
4124, 459.084
4125, 459.084
4126, 459.084
4127, 459.084
4128, 459.084
4129, 459.084
4130, 459.084
4131, 459.084
4132, 459.084
4133, 459.084
4134, 459.084
4135, 459.084
4136, 459.084
4137, 459.084
4138, 459.084
4139, 459.084
4140, 459.084
4141, 459.084
4142, 459.084
4143, 459.084
4144, 459.084
4145, 459.084
4146, 459.084
4147, 459.084
4148, 459.084
4149, 459.084
4150, 459.084
4151, 459.084
4152, 459.084
4153, 459.084
4154, 459.084
4155, 459.084
4156, 459.084
4157, 459.084
4158, 459.084
4159, 459.084
4160, 459.084
4161, 459.084
4162, 459.084
4163, 459.084
4164, 459.084
4165, 459.084
4166, 459.084
4167, 459.084
4168, 459.084
4169, 457.265
4170, 459.084
4171, 457.265
4172, 459.084
4173, 457.265
4174, 459.084
4175, 457.265
4176, 459.084
4177, 459.182
4178, 459.182
4179, 459.182
4180, 459.182
4181, 459.182
4182, 459.182
4183, 459.182
4184, 459.182
4185, 459.182
4186, 459.182
4187, 459.182
4188, 459.182
4189, 459.182
4190, 459.182
4191, 459.182
4192, 459.182
4193, 459.182
4194, 459.182
4195, 459.182
4196, 459.182
4197, 459.182
4198, 459.182
4199, 459.182
4200, 459.182
4201, 459.182
4202, 459.182
4203, 459.182
4204, 459.182
4205, 459.182
4206, 459.182
4207, 459.182
4208, 459.182
4209, 459.182
4210, 459.182
4211, 459.182
4212, 459.182
4213, 459.182
4214, 459.182
4215, 459.182
4216, 459.182
4217, 459.182
4218, 459.182
4219, 459.182
4220, 459.182
4221, 459.182
4222, 459.182
4223, 459.182
4224, 459.182
4225, 459.182
4226, 459.182
4227, 459.182
4228, 459.182
4229, 459.182
4230, 459.182
4231, 459.182
4232, 459.182
4233, 459.182
4234, 459.182
4235, 459.182
4236, 459.182
4237, 459.182
4238, 459.182
4239, 459.182
4240, 459.182
4241, 459.182
4242, 459.182
4243, 459.182
4244, 459.182
4245, 459.182
4246, 459.182
4247, 459.182
4248, 459.182
4249, 459.182
4250, 459.182
4251, 459.182
4252, 459.182
4253, 459.182
4254, 459.182
4255, 459.182
4256, 459.182
4257, 459.182
4258, 459.182
4259, 459.182
4260, 459.182
4261, 459.182
4262, 459.182
4263, 459.182
4264, 459.182
4265, 459.182
4266, 459.182
4267, 459.182
4268, 459.182
4269, 459.182
4270, 459.182
4271, 459.182
4272, 459.182
4273, 459.182
4274, 459.182
4275, 459.182
4276, 459.182
4277, 459.182
4278, 459.182
4279, 459.182
4280, 459.182
4281, 459.182
4282, 459.182
4283, 459.182
4284, 459.182
4285, 459.182
4286, 459.182
4287, 459.182
4288, 459.182
4289, 459.182
4290, 459.182
4291, 459.182
4292, 459.182
4293, 459.182
4294, 459.182
4295, 459.084
4296, 459.182
4297, 459.084
4298, 459.182
4299, 459.084
4300, 459.182
4301, 459.084
4302, 459.182
4303, 459.084
4304, 459.182
4305, 460.594
4306, 460.594
4307, 460.594
4308, 460.594
4309, 460.594
4310, 460.594
4311, 460.594
4312, 460.594
4313, 460.594
4314, 460.594
4315, 460.594
4316, 460.594
4317, 460.594
4318, 460.594
4319, 460.594
4320, 460.594
4321, 460.594
4322, 460.594
4323, 460.594
4324, 460.594
4325, 460.594
4326, 460.594
4327, 460.594
4328, 460.594
4329, 460.594
4330, 460.594
4331, 460.594
4332, 460.594
4333, 460.594
4334, 460.594
4335, 460.594
4336, 460.594
4337, 460.594
4338, 460.594
4339, 460.594
4340, 460.594
4341, 460.594
4342, 460.594
4343, 460.594
4344, 460.594
4345, 460.594
4346, 460.594
4347, 460.594
4348, 460.594
4349, 460.594
4350, 460.594
4351, 460.594
4352, 460.594
4353, 460.594
4354, 460.594
4355, 460.594
4356, 460.594
4357, 460.594
4358, 460.594
4359, 460.594
4360, 460.594
4361, 460.594
4362, 460.594
4363, 460.594
4364, 460.594
4365, 460.594
4366, 460.594
4367, 460.594
4368, 460.594
4369, 460.594
4370, 460.594
4371, 460.594
4372, 460.594
4373, 460.594
4374, 460.594
4375, 460.594
4376, 460.594
4377, 460.594
4378, 460.594
4379, 460.594
4380, 460.594
4381, 460.594
4382, 460.594
4383, 460.594
4384, 460.594
4385, 460.594
4386, 460.594
4387, 460.594
4388, 460.594
4389, 460.594
4390, 460.594
4391, 460.594
4392, 460.594
4393, 460.594
4394, 460.594
4395, 460.594
4396, 460.594
4397, 460.594
4398, 460.594
4399, 460.594
4400, 460.594
4401, 460.594
4402, 460.594
4403, 460.594
4404, 460.594
4405, 460.594
4406, 460.594
4407, 460.594
4408, 460.594
4409, 460.594
4410, 460.594
4411, 460.594
4412, 460.594
4413, 460.594
4414, 460.594
4415, 460.594
4416, 460.594
4417, 460.594
4418, 460.594
4419, 460.594
4420, 460.594
4421, 460.594
4422, 460.594
4423, 460.594
4424, 460.594
4425, 460.594
4426, 460.594
4427, 460.594
4428, 459.182
4429, 460.594
4430, 459.182
4431, 460.594
4432, 459.182
4433, 460.594
4434, 459.182
4435, 460.594
4436, 459.182
4437, 460.594
4438, 459.182
4439, 460.594
4440, 460.902
4441, 460.902
4442, 460.902
4443, 460.902
4444, 460.902
4445, 460.902
4446, 460.902
4447, 460.902
4448, 460.902
4449, 460.902
4450, 460.902
4451, 460.902
4452, 460.902
4453, 460.902
4454, 460.902
4455, 460.902
4456, 460.902
4457, 460.902
4458, 460.902
4459, 460.902
4460, 460.902
4461, 460.902
4462, 460.902
4463, 460.902
4464, 460.902
4465, 460.902
4466, 460.902
4467, 460.902
4468, 460.902
4469, 460.902
4470, 460.902
4471, 460.902
4472, 460.902
4473, 460.902
4474, 460.902
4475, 460.902
4476, 460.902
4477, 460.902
4478, 460.902
4479, 460.902
4480, 460.902
4481, 460.902
4482, 460.902
4483, 460.902
4484, 460.902
4485, 460.902
4486, 460.902
4487, 460.902
4488, 460.902
4489, 460.902
4490, 460.902
4491, 460.902
4492, 460.902
4493, 460.902
4494, 460.902
4495, 460.902
4496, 460.902
4497, 460.902
4498, 460.902
4499, 460.902
4500, 460.902
4501, 460.902
4502, 460.902
4503, 460.902
4504, 460.902
4505, 460.902
4506, 460.902
4507, 460.902
4508, 460.902
4509, 460.902
4510, 460.902
4511, 460.902
4512, 460.902
4513, 460.902
4514, 460.902
4515, 460.902
4516, 460.902
4517, 460.902
4518, 460.902
4519, 460.902
4520, 460.902
4521, 460.902
4522, 460.902
4523, 460.902
4524, 460.902
4525, 460.902
4526, 460.902
4527, 460.902
4528, 460.902
4529, 460.902
4530, 460.902
4531, 460.902
4532, 460.902
4533, 460.902
4534, 460.902
4535, 460.902
4536, 460.902
4537, 460.902
4538, 460.902
4539, 460.902
4540, 460.902
4541, 460.902
4542, 460.902
4543, 460.902
4544, 460.902
4545, 460.902
4546, 460.902
4547, 460.902
4548, 460.902
4549, 460.902
4550, 460.902
4551, 460.902
4552, 460.902
4553, 460.902
4554, 460.902
4555, 460.902
4556, 460.902
4557, 460.902
4558, 460.902
4559, 460.902
4560, 460.902
4561, 460.902
4562, 460.902
4563, 460.902
4564, 460.902
4565, 460.902
4566, 460.902
4567, 460.902
4568, 460.902
4569, 460.594
4570, 460.902
4571, 460.594
4572, 460.902
4573, 460.594
4574, 460.902
4575, 460.594
4576, 460.902
4577, 460.594
4578, 460.902
4579, 460.594
4580, 460.902
4581, 460.594
4582, 460.902
4583, 460.594
4584, 460.902
4585, 460.594
4586, 460.902
4587, 461.073
4588, 461.073
4589, 461.073
4590, 461.073
4591, 461.073
4592, 461.073
4593, 461.073
4594, 461.073
4595, 461.073
4596, 461.073
4597, 461.073
4598, 461.073
4599, 461.073
4600, 461.073
4601, 461.073
4602, 461.073
4603, 461.073
4604, 461.073
4605, 461.073
4606, 461.073
4607, 461.073
4608, 461.073
4609, 461.073
4610, 461.073
4611, 461.073
4612, 461.073
4613, 461.073
4614, 461.073
4615, 461.073
4616, 461.073
4617, 461.073
4618, 461.073
4619, 461.073
4620, 461.073
4621, 461.073
4622, 461.073
4623, 461.073
4624, 461.073
4625, 461.073
4626, 461.073
4627, 461.073
4628, 461.073
4629, 461.073
4630, 461.073
4631, 461.073
4632, 461.073
4633, 461.073
4634, 461.073
4635, 461.073
4636, 461.073
4637, 461.073
4638, 461.073
4639, 461.073
4640, 461.073
4641, 461.073
4642, 461.073
4643, 461.073
4644, 461.073
4645, 461.073
4646, 461.073
4647, 461.073
4648, 461.073
4649, 461.073
4650, 461.073
4651, 461.073
4652, 461.073
4653, 461.073
4654, 461.073
4655, 461.073
4656, 461.073
4657, 461.073
4658, 461.073
4659, 461.073
4660, 461.073
4661, 461.073
4662, 461.073
4663, 461.073
4664, 461.073
4665, 461.073
4666, 461.073
4667, 461.073
4668, 461.073
4669, 461.073
4670, 461.073
4671, 461.073
4672, 461.073
4673, 461.073
4674, 461.073
4675, 461.073
4676, 461.073
4677, 461.073
4678, 461.073
4679, 461.073
4680, 461.073
4681, 461.073
4682, 461.073
4683, 461.073
4684, 461.073
4685, 461.073
4686, 461.073
4687, 461.073
4688, 461.073
4689, 461.073
4690, 461.073
4691, 461.073
4692, 461.073
4693, 461.073
4694, 461.073
4695, 461.073
4696, 461.073
4697, 461.073
4698, 461.073
4699, 461.073
4700, 461.073
4701, 461.073
4702, 461.073
4703, 461.073
4704, 461.073
4705, 461.073
4706, 461.073
4707, 461.073
4708, 461.073
4709, 461.073
4710, 461.073
4711, 461.073
4712, 461.073
4713, 461.073
4714, 461.073
4715, 461.073
4716, 461.073
4717, 461.073
4718, 461.073
4719, 461.073
4720, 461.073
4721, 461.073
4722, 461.073
4723, 461.073
4724, 461.073
4725, 460.902
4726, 461.073
4727, 460.902
4728, 461.073
4729, 460.902
4730, 461.073
4731, 460.902
4732, 461.073
4733, 460.902
4734, 461.073
4735, 460.902
4736, 461.073
4737, 461.073
4738, 461.073
4739, 461.073
4740, 461.073
4741, 461.073
4742, 461.073
4743, 461.073
4744, 461.073
4745, 461.073
4746, 461.073
4747, 461.073
4748, 461.073
4749, 461.073
4750, 461.073
4751, 461.073
4752, 461.073
4753, 461.073
4754, 461.073
4755, 461.073
4756, 461.073
4757, 461.073
4758, 461.073
4759, 461.073
4760, 461.073
4761, 461.073
4762, 461.073
4763, 461.073
4764, 461.073
4765, 461.073
4766, 461.073
4767, 461.073
4768, 461.073
4769, 461.073
4770, 461.073
4771, 461.073
4772, 461.073
4773, 461.073
4774, 461.073
4775, 461.073
4776, 461.073
4777, 461.073
4778, 461.073
4779, 461.073
4780, 461.073
4781, 461.073
4782, 461.073
4783, 461.073
4784, 461.073
4785, 461.073
4786, 461.073
4787, 461.073
4788, 461.073
4789, 461.073
4790, 461.073
4791, 461.073
4792, 461.073
4793, 461.073
4794, 461.073
4795, 461.073
4796, 461.073
4797, 461.073
4798, 461.073
4799, 461.073
4800, 461.073
4801, 461.073
4802, 461.073
4803, 461.073
4804, 461.073
4805, 461.073
4806, 461.073
4807, 461.073
4808, 461.073
4809, 461.073
4810, 461.073
4811, 461.073
4812, 461.073
4813, 461.073
4814, 461.073
4815, 461.073
4816, 461.073
4817, 461.073
4818, 461.073
4819, 461.073
4820, 461.073
4821, 461.073
4822, 461.073
4823, 461.073
4824, 461.073
4825, 461.073
4826, 461.073
4827, 461.073
4828, 461.073
4829, 461.073
4830, 461.073
4831, 461.073
4832, 461.073
4833, 461.073
4834, 461.073
4835, 461.073
4836, 461.073
4837, 461.073
4838, 461.073
4839, 461.073
4840, 461.073
4841, 461.073
4842, 461.073
4843, 461.073
4844, 461.073
4845, 461.073
4846, 461.073
4847, 461.073
4848, 461.073
4849, 461.073
4850, 461.073
4851, 461.073
4852, 461.073
4853, 461.073
4854, 461.073
4855, 461.073
4856, 461.073
4857, 461.073
4858, 461.073
4859, 461.073
4860, 461.073
4861, 461.073
4862, 461.073
4863, 461.073
4864, 461.073
4865, 461.073
4866, 461.073
4867, 461.073
4868, 461.073
4869, 461.073
4870, 461.073
4871, 461.073
4872, 461.073
4873, 461.073
4874, 461.073
4875, 461.073
4876, 461.073
4877, 461.073
4878, 461.073
4879, 461.073
4880, 461.073
4881, 461.073
4882, 461.073
4883, 461.073
4884, 461.073
4885, 461.073
4886, 461.073
4887, 461.073
4888, 461.073
4889, 461.073
4890, 461.073
4891, 461.073
4892, 461.073
4893, 461.073
4894, 461.073
4895, 461.073
4896, 461.073
4897, 461.073
4898, 461.073
4899, 461.073
4900, 461.073
4901, 461.073
4902, 461.073
4903, 461.073
4904, 461.073
4905, 461.073
4906, 461.073
4907, 461.073
4908, 461.073
4909, 461.073
4910, 461.073
4911, 461.073
4912, 461.073
4913, 461.073
4914, 461.073
4915, 461.073
4916, 461.073
4917, 461.073
4918, 461.073
4919, 461.073
4920, 461.073
4921, 461.073
4922, 461.073
4923, 461.073
4924, 461.073
4925, 461.073
4926, 461.073
4927, 461.073
4928, 461.073
4929, 461.073
4930, 461.073
4931, 461.073
4932, 461.073
4933, 461.073
4934, 461.073
4935, 461.073
4936, 461.073
4937, 461.073
4938, 461.073
4939, 461.073
4940, 461.073
4941, 461.073
4942, 461.073
4943, 461.073
4944, 461.073
4945, 461.073
4946, 461.073
4947, 461.073
4948, 461.073
4949, 461.073
4950, 461.073
4951, 461.073
4952, 461.073
4953, 461.073
4954, 461.073
4955, 461.073
4956, 461.073
4957, 461.073
4958, 461.073
4959, 461.073
4960, 461.073
4961, 461.073
4962, 461.073
4963, 461.073
4964, 461.073
4965, 461.073
4966, 461.073
4967, 461.073
4968, 461.073
4969, 461.073
4970, 461.073
4971, 461.073
4972, 461.073
4973, 461.073
4974, 461.073
4975, 461.073
4976, 461.073
4977, 461.073
4978, 461.073
4979, 461.073
4980, 461.073
4981, 461.073
4982, 461.073
4983, 461.073
4984, 461.073
4985, 461.073
4986, 461.073
4987, 461.073
4988, 461.073
4989, 461.073
4990, 461.073
4991, 461.073
4992, 461.073
4993, 461.073
4994, 461.073
4995, 461.073
4996, 461.073
4997, 461.073
4998, 461.073
4999, 461.073
5000, 461.073
5001, 461.073
5002, 461.073
5003, 461.073
5004, 461.073
5005, 461.073
5006, 461.073
5007, 461.073
5008, 461.073
5009, 461.073
5010, 461.073
5011, 461.073
5012, 461.073
5013, 461.073
5014, 461.073
5015, 461.073
5016, 461.073
5017, 461.073
5018, 461.073
5019, 461.073
5020, 461.073
5021, 461.073
5022, 461.073
5023, 461.073
5024, 461.073
5025, 461.073
5026, 461.073
5027, 461.073
5028, 461.073
5029, 461.073
5030, 461.073
5031, 461.073
5032, 461.073
5033, 461.073
5034, 461.073
5035, 461.073
5036, 461.073
5037, 461.073
5038, 461.073
5039, 461.073
5040, 461.073
5041, 461.073
5042, 461.073
5043, 461.073
5044, 461.073
5045, 461.073
5046, 461.073
5047, 461.073
5048, 461.073
5049, 461.073
5050, 461.073
5051, 461.073
5052, 461.073
5053, 461.073
5054, 461.073
5055, 461.073
5056, 461.073
5057, 461.073
5058, 461.073
5059, 461.073
5060, 461.073
5061, 461.073
5062, 461.073
5063, 461.073
5064, 461.073
5065, 461.073
5066, 461.073
5067, 461.073
5068, 461.073
5069, 461.073
5070, 461.073
5071, 461.073
5072, 461.073
5073, 461.073
5074, 461.073
5075, 461.073
5076, 461.073
5077, 461.073
5078, 461.073
5079, 461.073
5080, 461.073
5081, 461.073
5082, 461.073
5083, 461.073
5084, 461.073
5085, 461.073
5086, 461.073
5087, 461.073
5088, 461.073
5089, 461.073
5090, 461.073
5091, 461.073
5092, 461.073
5093, 461.073
5094, 461.073
5095, 461.073
5096, 461.073
5097, 461.073
5098, 461.073
5099, 461.073
5100, 461.073
5101, 461.073
5102, 461.073
5103, 461.073
5104, 461.073
5105, 461.073
5106, 461.073
5107, 461.073
5108, 461.073
5109, 461.073
5110, 461.073
5111, 461.073
5112, 461.073
5113, 461.073
5114, 461.073
5115, 461.073
5116, 461.073
5117, 461.073
5118, 461.073
5119, 461.073
5120, 461.073
5121, 461.073
5122, 461.073
5123, 461.073
5124, 461.073
5125, 461.073
5126, 461.073
5127, 461.073
5128, 461.073
5129, 461.073
5130, 461.073
5131, 461.073
5132, 461.073
5133, 461.073
5134, 461.073
5135, 461.073
5136, 461.073
5137, 461.073
5138, 461.073
5139, 461.073
5140, 461.073
5141, 461.073
5142, 461.073
5143, 461.073
5144, 461.073
5145, 461.073
5146, 461.073
5147, 461.073
5148, 461.073
5149, 461.073
5150, 461.073
5151, 461.073
5152, 461.073
5153, 461.073
5154, 461.073
5155, 461.073
5156, 461.073
5157, 461.073
5158, 461.073
5159, 461.073
5160, 461.073
5161, 461.073
5162, 461.073
5163, 461.073
5164, 461.073
5165, 461.073
5166, 461.073
5167, 461.073
5168, 461.073
5169, 461.073
5170, 461.073
5171, 461.073
5172, 461.073
5173, 461.073
5174, 461.073
5175, 461.073
5176, 461.073
5177, 461.073
5178, 461.073
5179, 461.073
5180, 461.073
5181, 461.073
5182, 461.073
5183, 461.073
5184, 461.073
5185, 461.073
5186, 461.073
5187, 461.073
5188, 461.073
5189, 461.073
5190, 461.073
5191, 461.073
5192, 461.073
5193, 461.073
5194, 461.073
5195, 461.073
5196, 461.073
5197, 461.073
5198, 461.073
5199, 461.073
5200, 461.073
5201, 461.073
5202, 461.073
5203, 461.073
5204, 461.073
5205, 461.073
5206, 461.073
5207, 461.073
5208, 461.073
5209, 461.073
5210, 461.073
5211, 461.073
5212, 461.073
5213, 461.073
5214, 461.073
5215, 461.073
5216, 461.073
5217, 461.073
5218, 461.073
5219, 461.073
5220, 461.073
5221, 461.073
5222, 461.073
5223, 461.073
5224, 461.073
5225, 461.073
5226, 461.073
5227, 461.073
5228, 461.073
5229, 461.073
5230, 461.073
5231, 461.073
5232, 461.073
5233, 461.073
5234, 461.073
5235, 461.073
5236, 461.073
5237, 461.073
5238, 461.073
5239, 461.073
5240, 461.073
5241, 461.073
5242, 461.073
5243, 461.073
5244, 461.073
5245, 461.073
5246, 461.073
5247, 461.073
5248, 461.073
5249, 461.073
5250, 461.073
5251, 461.073
5252, 461.073
5253, 461.073
5254, 461.073
5255, 461.073
5256, 461.073
5257, 461.073
5258, 461.073
5259, 461.073
5260, 461.073
5261, 461.073
5262, 461.073
5263, 461.073
5264, 461.073
5265, 461.073
5266, 461.073
5267, 461.073
5268, 461.073
5269, 461.073
5270, 461.073
5271, 461.073
5272, 461.073
5273, 461.073
5274, 461.073
5275, 461.073
5276, 461.073
5277, 461.073
5278, 461.073
5279, 461.073
5280, 461.073
5281, 461.073
5282, 461.073
5283, 461.073
5284, 461.073
5285, 461.073
5286, 461.073
5287, 461.073
5288, 461.073
5289, 461.073
5290, 461.073
5291, 461.073
5292, 461.073
5293, 461.073
5294, 461.073
5295, 461.073
5296, 461.073
5297, 461.073
5298, 461.073
5299, 461.073
5300, 461.073
5301, 461.073
5302, 461.073
5303, 461.073
5304, 461.073
5305, 461.073
5306, 461.073
5307, 461.073
5308, 461.073
5309, 461.073
5310, 461.073
5311, 461.073
5312, 461.073
5313, 461.073
5314, 461.073
5315, 461.073
5316, 461.073
5317, 461.073
5318, 461.073
5319, 461.073
5320, 461.073
5321, 461.073
5322, 461.073
5323, 461.073
5324, 461.073
5325, 461.073
5326, 461.073
5327, 461.073
5328, 461.073
5329, 461.073
5330, 461.073
5331, 461.073
5332, 461.073
5333, 461.073
5334, 461.073
5335, 461.073
5336, 461.073
5337, 461.073
5338, 461.073
5339, 461.073
5340, 461.073
5341, 461.073
5342, 461.073
5343, 461.073
5344, 461.073
5345, 461.073
5346, 461.073
5347, 461.073
5348, 461.073
5349, 461.073
5350, 461.073
5351, 461.073
5352, 461.073
5353, 461.073
5354, 461.073
5355, 461.073
5356, 461.073
5357, 461.073
5358, 461.073
5359, 461.073
5360, 461.073
5361, 461.073
5362, 461.073
5363, 461.073
5364, 461.073
5365, 461.073
5366, 461.073
5367, 461.073
5368, 461.073
5369, 461.073
5370, 461.073
5371, 461.073
5372, 461.073
5373, 461.073
5374, 461.073
5375, 461.073
5376, 461.073
5377, 461.073
5378, 461.073
5379, 461.073
5380, 461.073
5381, 461.073
5382, 461.073
5383, 461.073
5384, 461.073
5385, 461.073
5386, 461.073
5387, 461.073
5388, 461.073
5389, 461.073
5390, 461.073
5391, 461.073
5392, 461.073
5393, 461.073
5394, 461.073
5395, 461.073
5396, 461.073
5397, 461.073
5398, 461.073
5399, 461.073
5400, 461.073
5401, 461.073
5402, 461.073
5403, 461.073
5404, 461.073
5405, 461.073
5406, 461.073
5407, 461.073
5408, 461.073
5409, 461.073
5410, 461.073
5411, 461.073
5412, 461.073
5413, 461.073
5414, 461.073
5415, 461.073
5416, 461.073
5417, 461.073
5418, 461.073
5419, 461.073
5420, 461.073
5421, 461.073
5422, 461.073
5423, 461.073
5424, 461.073
5425, 461.073
5426, 461.073
5427, 461.073
5428, 461.073
5429, 461.073
5430, 461.073
5431, 461.073
5432, 461.073
5433, 461.073
5434, 461.073
5435, 461.073
5436, 461.073
5437, 461.073
5438, 461.073
5439, 461.073
5440, 461.073
5441, 461.073
5442, 461.073
5443, 461.073
5444, 461.073
5445, 461.073
5446, 461.073
5447, 461.073
5448, 461.073
5449, 461.073
5450, 461.073
5451, 461.073
5452, 461.073
5453, 461.073
5454, 461.073
5455, 461.073
5456, 461.073
5457, 461.073
5458, 461.073
5459, 461.073
5460, 461.073
5461, 461.073
5462, 461.073
5463, 461.073
5464, 461.073
5465, 461.073
5466, 461.073
5467, 461.073
5468, 461.073
5469, 461.073
5470, 461.073
5471, 461.073
5472, 461.073
5473, 461.073
5474, 461.073
5475, 461.073
5476, 461.073
5477, 461.073
5478, 461.073
5479, 461.073
5480, 461.073
5481, 461.073
5482, 461.073
5483, 461.073
5484, 461.073
5485, 461.073
5486, 461.073
5487, 461.073
5488, 461.073
5489, 461.073
5490, 461.073
5491, 461.073
5492, 461.073
5493, 461.073
5494, 461.073
5495, 461.073
5496, 461.073
5497, 461.073
5498, 461.073
5499, 461.073
5500, 461.073
5501, 461.073
5502, 461.073
5503, 461.073
5504, 461.073
5505, 461.073
5506, 461.073
5507, 461.073
5508, 461.073
5509, 461.073
5510, 461.073
5511, 461.073
5512, 461.073
5513, 461.073
5514, 461.073
5515, 461.073
5516, 461.073
5517, 461.073
5518, 461.073
5519, 461.073
5520, 461.073
5521, 461.073
5522, 461.073
5523, 461.073
5524, 461.073
5525, 461.073
5526, 461.073
5527, 461.073
5528, 461.073
5529, 461.073
5530, 461.073
5531, 461.073
5532, 461.073
5533, 461.073
5534, 461.073
5535, 461.073
5536, 461.073
5537, 461.073
5538, 461.073
5539, 461.073
5540, 461.073
5541, 461.073
5542, 461.073
5543, 461.073
5544, 461.073
5545, 461.073
5546, 461.073
5547, 461.073
5548, 461.073
5549, 461.073
5550, 461.073
5551, 461.073
5552, 461.073
5553, 461.073
5554, 461.073
5555, 461.073
5556, 461.073
5557, 461.073
5558, 461.073
5559, 461.073
5560, 461.073
5561, 461.073
5562, 461.073
5563, 461.073
5564, 461.073
5565, 461.073
5566, 461.073
5567, 461.073
5568, 461.073
5569, 461.073
5570, 461.073
5571, 461.073
5572, 461.073
5573, 461.073
5574, 461.073
5575, 461.073
5576, 461.073
5577, 461.073
5578, 461.073
5579, 461.073
5580, 461.073
5581, 461.073
5582, 461.073
5583, 461.073
5584, 461.073
5585, 461.073
5586, 461.073
5587, 461.073
5588, 461.073
5589, 461.073
5590, 461.073
5591, 461.073
5592, 461.073
5593, 461.073
5594, 461.073
5595, 461.073
5596, 461.073
5597, 461.073
5598, 461.073
5599, 461.073
5600, 461.073
5601, 461.073
5602, 461.073
5603, 461.073
5604, 461.073
5605, 461.073
5606, 461.073
5607, 461.073
5608, 461.073
5609, 461.073
5610, 461.073
5611, 461.073
5612, 461.073
5613, 461.073
5614, 461.073
5615, 461.073
5616, 461.073
5617, 461.073
5618, 461.073
5619, 461.073
5620, 461.073
5621, 461.073
5622, 461.073
5623, 461.073
5624, 461.073
5625, 461.073
5626, 461.073
5627, 461.073
5628, 461.073
5629, 461.073
5630, 461.073
5631, 461.073
5632, 461.073
5633, 461.073
5634, 461.073
5635, 461.073
5636, 461.073
5637, 461.073
5638, 461.073
5639, 461.073
5640, 461.073
5641, 461.073
5642, 461.073
5643, 461.073
5644, 461.073
5645, 461.073
5646, 461.073
5647, 461.073
5648, 461.073
5649, 461.073
5650, 461.073
5651, 461.073
5652, 461.073
5653, 461.073
5654, 461.073
5655, 461.073
5656, 461.073
5657, 461.073
5658, 461.073
5659, 461.073
5660, 461.073
5661, 461.073
5662, 461.073
5663, 461.073
5664, 461.073
5665, 461.073
5666, 461.073
5667, 461.073
5668, 461.073
5669, 461.073
5670, 461.073
5671, 461.073
5672, 461.073
5673, 461.073
5674, 461.073
5675, 461.073
5676, 461.073
5677, 461.073
5678, 461.073
5679, 461.073
5680, 461.073
5681, 461.073
5682, 461.073
5683, 461.073
5684, 461.073
5685, 461.073
5686, 461.073
5687, 461.073
5688, 461.073
5689, 461.073
5690, 461.073
5691, 461.073
5692, 461.073
5693, 461.073
5694, 461.073
5695, 461.073
5696, 461.073
5697, 461.073
5698, 461.073
5699, 461.073
5700, 461.073
5701, 461.073
5702, 461.073
5703, 461.073
5704, 461.073
5705, 461.073
5706, 461.073
5707, 461.073
5708, 461.073
5709, 461.073
5710, 461.073
5711, 461.073
5712, 461.073
5713, 461.073
5714, 461.073
5715, 461.073
5716, 461.073
5717, 461.073
5718, 461.073
5719, 461.073
5720, 461.073
5721, 461.073
5722, 461.073
5723, 461.073
5724, 461.073
5725, 461.073
5726, 461.073
5727, 461.073
5728, 461.073
5729, 461.073
5730, 461.073
5731, 461.073
5732, 461.073
5733, 461.073
5734, 461.073
5735, 461.073
5736, 461.073
5737, 461.073
5738, 461.073
5739, 461.073
5740, 461.073
5741, 461.073
5742, 461.073
5743, 461.073
5744, 461.073
5745, 461.073
5746, 461.073
5747, 461.073
5748, 461.073
5749, 461.073
5750, 461.073
5751, 461.073
5752, 461.073
5753, 461.073
5754, 461.073
5755, 461.073
5756, 461.073
5757, 461.073
5758, 461.073
5759, 461.073
5760, 461.073
5761, 461.073
5762, 461.073
5763, 461.073
5764, 461.073
5765, 461.073
5766, 461.073
5767, 461.073
5768, 461.073
5769, 461.073
5770, 461.073
5771, 461.073
5772, 461.073
5773, 461.073
5774, 461.073
5775, 461.073
5776, 461.073
5777, 461.073
5778, 461.073
5779, 461.073
5780, 461.073
5781, 461.073
5782, 461.073
5783, 461.073
5784, 461.073
5785, 461.073
5786, 461.073
5787, 461.073
5788, 461.073
5789, 461.073
5790, 461.073
5791, 461.073
5792, 461.073
5793, 461.073
5794, 461.073
5795, 461.073
5796, 461.073
5797, 461.073
5798, 461.073
5799, 461.073
5800, 461.073
5801, 461.073
5802, 461.073
5803, 461.073
5804, 461.073
5805, 461.073
5806, 461.073
5807, 461.073
5808, 461.073
5809, 461.073
5810, 461.073
5811, 461.073
5812, 461.073
5813, 461.073
5814, 461.073
5815, 461.073
5816, 461.073
5817, 461.073
5818, 461.073
5819, 461.073
5820, 461.073
5821, 461.073
5822, 461.073
5823, 461.073
5824, 461.073
5825, 461.073
5826, 461.073
5827, 461.073
5828, 461.073
5829, 461.073
5830, 461.073
5831, 461.073
5832, 461.073
5833, 461.073
5834, 461.073
5835, 461.073
5836, 461.073
5837, 461.073
5838, 461.073
5839, 461.073
5840, 461.073
5841, 461.073
5842, 461.073
5843, 461.073
5844, 461.073
5845, 461.073
5846, 461.073
5847, 461.073
5848, 461.073
5849, 461.073
5850, 461.073
5851, 461.073
5852, 461.073
5853, 461.073
5854, 461.073
5855, 461.073
5856, 461.073
5857, 461.073
5858, 461.073
5859, 461.073
5860, 461.073
5861, 461.073
5862, 461.073
5863, 461.073
5864, 461.073
5865, 461.073
5866, 461.073
5867, 461.073
5868, 461.073
5869, 461.073
5870, 461.073
5871, 461.073
5872, 461.073
5873, 461.073
5874, 461.073
5875, 461.073
5876, 461.073
5877, 461.073
5878, 461.073
5879, 461.073
5880, 461.073
5881, 461.073
5882, 461.073
5883, 461.073
5884, 461.073
5885, 461.073
5886, 461.073
5887, 461.073
5888, 461.073
5889, 461.073
5890, 461.073
5891, 461.073
5892, 461.073
5893, 461.073
5894, 461.073
5895, 461.073
5896, 461.073
5897, 461.073
5898, 461.073
5899, 461.073
5900, 461.073
5901, 461.073
5902, 461.073
5903, 461.073
5904, 461.073
5905, 461.073
5906, 461.073
5907, 461.073
5908, 461.073
5909, 461.073
5910, 461.073
5911, 461.073
5912, 461.073
5913, 461.073
5914, 461.073
5915, 461.073
5916, 461.073
5917, 461.073
5918, 461.073
5919, 461.073
5920, 461.073
5921, 461.073
5922, 461.073
5923, 461.073
5924, 461.073
5925, 461.073
5926, 461.073
5927, 461.073
5928, 461.073
5929, 461.073
5930, 461.073
5931, 461.073
5932, 461.073
5933, 461.073
5934, 461.073
5935, 461.073
5936, 461.073
5937, 461.073
5938, 461.073
5939, 461.073
5940, 461.073
5941, 461.073
5942, 461.073
5943, 461.073
5944, 461.073
5945, 461.073
5946, 461.073
5947, 461.073
5948, 461.073
5949, 461.073
5950, 461.073
5951, 461.073
5952, 461.073
5953, 461.073
5954, 461.073
5955, 461.073
5956, 461.073
5957, 461.073
5958, 461.073
5959, 461.073
5960, 461.073
5961, 461.073
5962, 461.073
5963, 461.073
5964, 461.073
5965, 461.073
5966, 461.073
5967, 461.073
5968, 461.073
5969, 461.073
5970, 461.073
5971, 461.073
5972, 461.073
5973, 461.073
5974, 461.073
5975, 461.073
5976, 461.073
5977, 461.073
5978, 461.073
5979, 461.073
5980, 461.073
5981, 461.073
5982, 461.073
5983, 461.073
5984, 461.073
5985, 461.073
5986, 461.073
5987, 461.073
5988, 461.073
5989, 461.073
5990, 461.073
5991, 461.073
5992, 461.073
5993, 461.073
5994, 461.073
5995, 461.073
5996, 461.073
5997, 461.073
5998, 461.073
5999, 461.073
6000, 461.073
6001, 461.073
6002, 461.073
6003, 461.073
6004, 461.073
6005, 461.073
6006, 461.073
6007, 461.073
6008, 461.073
6009, 461.073
6010, 461.073
6011, 461.073
6012, 461.073
6013, 461.073
6014, 461.073
6015, 461.073
6016, 461.073
6017, 461.073
6018, 461.073
6019, 461.073
6020, 461.073
6021, 461.073
6022, 461.073
6023, 461.073
6024, 461.073
6025, 461.073
6026, 461.073
6027, 461.073
6028, 461.073
6029, 461.073
6030, 461.073
6031, 461.073
6032, 461.073
6033, 461.073
6034, 461.073
6035, 461.073
6036, 461.073
6037, 461.073
6038, 461.073
6039, 461.073
6040, 461.073
6041, 461.073
6042, 461.073
6043, 461.073
6044, 461.073
6045, 461.073
6046, 461.073
6047, 461.073
6048, 461.073
6049, 461.073
6050, 461.073
6051, 461.073
6052, 461.073
6053, 461.073
6054, 461.073
6055, 461.073
6056, 461.073
6057, 461.073
6058, 461.073
6059, 461.073
6060, 461.073
6061, 461.073
6062, 461.073
6063, 461.073
6064, 461.073
6065, 461.073
6066, 461.073
6067, 461.073
6068, 461.073
6069, 461.073
6070, 461.073
6071, 461.073
6072, 461.073
6073, 461.073
6074, 461.073
6075, 461.073
6076, 461.073
6077, 461.073
6078, 461.073
6079, 461.073
6080, 461.073
6081, 461.073
6082, 461.073
6083, 461.073
6084, 461.073
6085, 461.073
6086, 461.073
6087, 461.073
6088, 461.073
6089, 461.073
6090, 461.073
6091, 461.073
6092, 461.073
6093, 461.073
6094, 461.073
6095, 461.073
6096, 461.073
6097, 461.073
6098, 461.073
6099, 461.073
6100, 461.073
6101, 461.073
6102, 461.073
6103, 461.073
6104, 461.073
6105, 461.073
6106, 461.073
6107, 461.073
6108, 461.073
6109, 461.073
6110, 461.073
6111, 461.073
6112, 461.073
6113, 461.073
6114, 461.073
6115, 461.073
6116, 461.073
6117, 461.073
6118, 461.073
6119, 461.073
6120, 461.073
6121, 461.073
6122, 461.073
6123, 461.073
6124, 461.073
6125, 461.073
6126, 461.073
6127, 461.073
6128, 461.073
6129, 461.073
6130, 461.073
6131, 461.073
6132, 461.073
6133, 461.073
6134, 461.073
6135, 461.073
6136, 461.073
6137, 461.073
6138, 461.073
6139, 461.073
6140, 461.073
6141, 461.073
6142, 461.073
6143, 461.073
6144, 461.073
6145, 461.073
6146, 461.073
6147, 461.073
6148, 461.073
6149, 461.073
6150, 461.073
6151, 461.073
6152, 461.073
6153, 461.073
6154, 461.073
6155, 461.073
6156, 461.073
6157, 461.073
6158, 461.073
6159, 461.073
6160, 461.073
6161, 461.073
6162, 461.073
6163, 461.073
6164, 461.073
6165, 461.073
6166, 461.073
6167, 461.073
6168, 461.073
6169, 461.073
6170, 461.073
6171, 461.073
6172, 461.073
6173, 461.073
6174, 461.073
6175, 461.073
6176, 461.073
6177, 461.073
6178, 461.073
6179, 461.073
6180, 461.073
6181, 461.073
6182, 461.073
6183, 461.073
6184, 461.073
6185, 461.073
6186, 461.073
6187, 461.073
6188, 461.073
6189, 461.073
6190, 461.073
6191, 461.073
6192, 461.073
6193, 461.073
6194, 461.073
6195, 461.073
6196, 461.073
6197, 461.073
6198, 461.073
6199, 461.073
6200, 461.073
6201, 461.073
6202, 461.073
6203, 461.073
6204, 461.073
6205, 461.073
6206, 461.073
6207, 461.073
6208, 461.073
6209, 461.073
6210, 461.073
6211, 461.073
6212, 461.073
6213, 461.073
6214, 461.073
6215, 461.073
6216, 461.073
6217, 461.073
6218, 461.073
6219, 461.073
6220, 461.073
6221, 461.073
6222, 461.073
6223, 461.073
6224, 461.073
6225, 461.073
6226, 461.073
6227, 461.073
6228, 461.073
6229, 461.073
6230, 461.073
6231, 461.073
6232, 461.073
6233, 461.073
6234, 461.073
6235, 461.073
6236, 461.073
6237, 461.073
6238, 461.073
6239, 461.073
6240, 461.073
6241, 461.073
6242, 461.073
6243, 461.073
6244, 461.073
6245, 461.073
6246, 461.073
6247, 461.073
6248, 461.073
6249, 461.073
6250, 461.073
6251, 461.073
6252, 461.073
6253, 461.073
6254, 461.073
6255, 461.073
6256, 461.073
6257, 461.073
6258, 461.073
6259, 461.073
6260, 461.073
6261, 461.073
6262, 461.073
6263, 461.073
6264, 461.073
6265, 461.073
6266, 461.073
6267, 461.073
6268, 461.073
6269, 461.073
6270, 461.073
6271, 461.073
6272, 461.073
6273, 461.073
6274, 461.073
6275, 461.073
6276, 461.073
6277, 461.073
6278, 461.073
6279, 461.073
6280, 461.073
6281, 461.073
6282, 461.073
6283, 461.073
6284, 461.073
6285, 461.073
6286, 461.073
6287, 461.073
6288, 461.073
6289, 461.073
6290, 461.073
6291, 461.073
6292, 461.073
6293, 461.073
6294, 461.073
6295, 461.073
6296, 461.073
6297, 461.073
6298, 461.073
6299, 461.073
6300, 461.073
6301, 461.073
6302, 461.073
6303, 461.073
6304, 461.073
6305, 461.073
6306, 461.073
6307, 461.073
6308, 461.073
6309, 461.073
6310, 461.073
6311, 461.073
6312, 461.073
6313, 461.073
6314, 461.073
6315, 461.073
6316, 461.073
6317, 461.073
6318, 461.073
6319, 461.073
6320, 461.073
6321, 461.073
6322, 461.073
6323, 461.073
6324, 461.073
6325, 461.073
6326, 461.073
6327, 461.073
6328, 461.073
6329, 461.073
6330, 461.073
6331, 461.073
6332, 461.073
6333, 461.073
6334, 461.073
6335, 461.073
6336, 461.073
6337, 461.073
6338, 461.073
6339, 461.073
6340, 461.073
6341, 461.073
6342, 461.073
6343, 461.073
6344, 461.073
6345, 461.073
6346, 461.073
6347, 461.073
6348, 461.073
6349, 461.073
6350, 461.073
6351, 461.073
6352, 461.073
6353, 461.073
6354, 461.073
6355, 461.073
6356, 461.073
6357, 461.073
6358, 461.073
6359, 461.073
6360, 461.073
6361, 461.073
6362, 461.073
6363, 461.073
6364, 461.073
6365, 461.073
6366, 461.073
6367, 461.073
6368, 461.073
6369, 461.073
6370, 461.073
6371, 461.073
6372, 461.073
6373, 461.073
6374, 461.073
6375, 461.073
6376, 461.073
6377, 461.073
6378, 461.073
6379, 461.073
6380, 461.073
6381, 461.073
6382, 461.073
6383, 461.073
6384, 461.073
6385, 461.073
6386, 461.073
6387, 461.073
6388, 461.073
6389, 461.073
6390, 461.073
6391, 461.073
6392, 461.073
6393, 461.073
6394, 461.073
6395, 461.073
6396, 461.073
6397, 461.073
6398, 461.073
6399, 461.073
6400, 461.073
6401, 461.073
6402, 461.073
6403, 461.073
6404, 461.073
6405, 461.073
6406, 461.073
6407, 461.073
6408, 461.073
6409, 461.073
6410, 461.073
6411, 461.073
6412, 461.073
6413, 461.073
6414, 461.073
6415, 461.073
6416, 461.073
6417, 461.073
6418, 461.073
6419, 461.073
6420, 461.073
6421, 461.073
6422, 461.073
6423, 461.073
6424, 461.073
6425, 461.073
6426, 461.073
6427, 461.073
6428, 461.073
6429, 461.073
6430, 461.073
6431, 461.073
6432, 461.073
6433, 461.073
6434, 461.073
6435, 461.073
6436, 461.073
6437, 461.073
6438, 461.073
6439, 461.073
6440, 461.073
6441, 461.073
6442, 461.073
6443, 461.073
6444, 461.073
6445, 461.073
6446, 461.073
6447, 461.073
6448, 461.073
6449, 461.073
6450, 461.073
6451, 461.073
6452, 461.073
6453, 461.073
6454, 461.073
6455, 461.073
6456, 461.073
6457, 461.073
6458, 461.073
6459, 461.073
6460, 461.073
6461, 461.073
6462, 461.073
6463, 461.073
6464, 461.073
6465, 461.073
6466, 461.073
6467, 461.073
6468, 461.073
6469, 461.073
6470, 461.073
6471, 461.073
6472, 461.073
6473, 461.073
6474, 461.073
6475, 461.073
6476, 461.073
6477, 461.073
6478, 461.073
6479, 461.073
6480, 461.073
6481, 461.073
6482, 461.073
6483, 461.073
6484, 461.073
6485, 461.073
6486, 461.073
6487, 461.073
6488, 461.073
6489, 461.073
6490, 461.073
6491, 461.073
6492, 461.073
6493, 461.073
6494, 461.073
6495, 461.073
6496, 461.073
6497, 461.073
6498, 461.073
6499, 461.073
6500, 461.073
6501, 461.073
6502, 461.073
6503, 461.073
6504, 461.073
6505, 461.073
6506, 461.073
6507, 461.073
6508, 461.073
6509, 461.073
6510, 461.073
6511, 461.073
6512, 461.073
6513, 461.073
6514, 461.073
6515, 461.073
6516, 461.073
6517, 461.073
6518, 461.073
6519, 461.073
6520, 461.073
6521, 461.073
6522, 461.073
6523, 461.073
6524, 461.073
6525, 461.073
6526, 461.073
6527, 461.073
6528, 461.073
6529, 461.073
6530, 461.073
6531, 461.073
6532, 461.073
6533, 461.073
6534, 461.073
6535, 461.073
6536, 461.073
6537, 461.073
6538, 461.073
6539, 461.073
6540, 461.073
6541, 461.073
6542, 461.073
6543, 461.073
6544, 461.073
6545, 461.073
6546, 461.073
6547, 461.073
6548, 461.073
6549, 461.073
6550, 461.073
6551, 461.073
6552, 461.073
6553, 461.073
6554, 461.073
6555, 461.073
6556, 461.073
6557, 461.073
6558, 461.073
6559, 461.073
6560, 461.073
6561, 461.073
6562, 461.073
6563, 461.073
6564, 461.073
6565, 461.073
6566, 461.073
6567, 461.073
6568, 461.073
6569, 461.073
6570, 461.073
6571, 461.073
6572, 461.073
6573, 461.073
6574, 461.073
6575, 461.073
6576, 461.073
6577, 461.073
6578, 461.073
6579, 461.073
6580, 461.073
6581, 461.073
6582, 461.073
6583, 461.073
6584, 461.073
6585, 461.073
6586, 461.073
6587, 461.073
6588, 461.073
6589, 461.073
6590, 461.073
6591, 461.073
6592, 461.073
6593, 461.073
6594, 461.073
6595, 461.073
6596, 461.073
6597, 461.073
6598, 461.073
6599, 461.073
6600, 461.073
6601, 461.073
6602, 461.073
6603, 461.073
6604, 461.073
6605, 461.073
6606, 461.073
6607, 461.073
6608, 461.073
6609, 461.073
6610, 461.073
6611, 461.073
6612, 461.073
6613, 461.073
6614, 461.073
6615, 461.073
6616, 461.073
6617, 461.073
6618, 461.073
6619, 461.073
6620, 461.073
6621, 461.073
6622, 461.073
6623, 461.073
6624, 461.073
6625, 461.073
6626, 461.073
6627, 461.073
6628, 461.073
6629, 461.073
6630, 461.073
6631, 461.073
6632, 461.073
6633, 461.073
6634, 461.073
6635, 461.073
6636, 461.073
6637, 461.073
6638, 461.073
6639, 461.073
6640, 461.073
6641, 461.073
6642, 461.073
6643, 461.073
6644, 461.073
6645, 461.073
6646, 461.073
6647, 461.073
6648, 461.073
6649, 461.073
6650, 461.073
6651, 461.073
6652, 461.073
6653, 461.073
6654, 461.073
6655, 461.073
6656, 461.073
6657, 461.073
6658, 461.073
6659, 461.073
6660, 461.073
6661, 461.073
6662, 461.073
6663, 461.073
6664, 461.073
6665, 461.073
6666, 461.073
6667, 461.073
6668, 461.073
6669, 461.073
6670, 461.073
6671, 461.073
6672, 461.073
6673, 461.073
6674, 461.073
6675, 461.073
6676, 461.073
6677, 461.073
6678, 461.073
6679, 461.073
6680, 461.073
6681, 461.073
6682, 461.073
6683, 461.073
6684, 461.073
6685, 461.073
6686, 461.073
6687, 461.073
6688, 461.073
6689, 461.073
6690, 461.073
6691, 461.073
6692, 461.073
6693, 461.073
6694, 461.073
6695, 461.073
6696, 461.073
6697, 461.073
6698, 461.073
6699, 461.073
6700, 461.073
6701, 461.073
6702, 461.073
6703, 461.073
6704, 461.073
6705, 461.073
6706, 461.073
6707, 461.073
6708, 461.073
6709, 461.073
6710, 461.073
6711, 461.073
6712, 461.073
6713, 461.073
6714, 461.073
6715, 461.073
6716, 461.073
6717, 461.073
6718, 461.073
6719, 461.073
6720, 461.073
6721, 461.073
6722, 461.073
6723, 461.073
6724, 461.073
6725, 461.073
6726, 461.073
6727, 461.073
6728, 461.073
6729, 461.073
6730, 461.073
6731, 461.073
6732, 461.073
6733, 461.073
6734, 461.073
6735, 461.073
6736, 461.073
6737, 461.073
6738, 461.073
6739, 461.073
6740, 461.073
6741, 461.073
6742, 461.073
6743, 461.073
6744, 461.073
6745, 461.073
6746, 461.073
6747, 461.073
6748, 461.073
6749, 461.073
6750, 461.073
6751, 461.073
6752, 461.073
6753, 461.073
6754, 461.073
6755, 461.073
6756, 461.073
6757, 461.073
6758, 461.073
6759, 461.073
6760, 461.073
6761, 461.073
6762, 461.073
6763, 461.073
6764, 461.073
6765, 461.073
6766, 461.073
6767, 461.073
6768, 461.073
6769, 461.073
6770, 461.073
6771, 461.073
6772, 461.073
6773, 461.073
6774, 461.073
6775, 461.073
6776, 461.073
6777, 461.073
6778, 461.073
6779, 461.073
6780, 461.073
6781, 461.073
6782, 461.073
6783, 461.073
6784, 461.073
6785, 461.073
6786, 461.073
6787, 461.073
6788, 461.073
6789, 461.073
6790, 461.073
6791, 461.073
6792, 461.073
6793, 461.073
6794, 461.073
6795, 461.073
6796, 461.073
6797, 461.073
6798, 461.073
6799, 461.073
6800, 461.073
6801, 461.073
6802, 461.073
6803, 461.073
6804, 461.073
6805, 461.073
6806, 461.073
6807, 461.073
6808, 461.073
6809, 461.073
6810, 461.073
6811, 461.073
6812, 461.073
6813, 461.073
6814, 461.073
6815, 461.073
6816, 461.073
6817, 461.073
6818, 461.073
6819, 461.073
6820, 461.073
6821, 461.073
6822, 461.073
6823, 461.073
6824, 461.073
6825, 461.073
6826, 461.073
6827, 461.073
6828, 461.073
6829, 461.073
6830, 461.073
6831, 461.073
6832, 461.073
6833, 461.073
6834, 461.073
6835, 461.073
6836, 461.073
6837, 461.073
6838, 461.073
6839, 461.073
6840, 461.073
6841, 461.073
6842, 461.073
6843, 461.073
6844, 461.073
6845, 461.073
6846, 461.073
6847, 461.073
6848, 461.073
6849, 461.073
6850, 461.073
6851, 461.073
6852, 461.073
6853, 461.073
6854, 461.073
6855, 461.073
6856, 461.073
6857, 461.073
6858, 461.073
6859, 461.073
6860, 461.073
6861, 461.073
6862, 461.073
6863, 461.073
6864, 461.073
6865, 461.073
6866, 461.073
6867, 461.073
6868, 461.073
6869, 461.073
6870, 461.073
6871, 461.073
6872, 461.073
6873, 461.073
6874, 461.073
6875, 461.073
6876, 461.073
6877, 461.073
6878, 461.073
6879, 461.073
6880, 461.073
6881, 461.073
6882, 461.073
6883, 461.073
6884, 461.073
6885, 461.073
6886, 461.073
6887, 461.073
6888, 461.073
6889, 461.073
6890, 461.073
6891, 461.073
6892, 461.073
6893, 461.073
6894, 461.073
6895, 461.073
6896, 461.073
6897, 461.073
6898, 461.073
6899, 461.073
6900, 461.073
6901, 461.073
6902, 461.073
6903, 461.073
6904, 461.073
6905, 461.073
6906, 461.073
6907, 461.073
6908, 461.073
6909, 461.073
6910, 461.073
6911, 461.073
6912, 461.073
6913, 461.073
6914, 461.073
6915, 461.073
6916, 461.073
6917, 461.073
6918, 461.073
6919, 461.073
6920, 461.073
6921, 461.073
6922, 461.073
6923, 461.073
6924, 461.073
6925, 461.073
6926, 461.073
6927, 461.073
6928, 461.073
6929, 461.073
6930, 461.073
6931, 461.073
6932, 461.073
6933, 461.073
6934, 461.073
6935, 461.073
6936, 461.073
6937, 461.073
6938, 461.073
6939, 461.073
6940, 461.073
6941, 461.073
6942, 461.073
6943, 461.073
6944, 461.073
6945, 461.073
6946, 461.073
6947, 461.073
6948, 461.073
6949, 461.073
6950, 461.073
6951, 461.073
6952, 461.073
6953, 461.073
6954, 461.073
6955, 461.073
6956, 461.073
6957, 461.073
6958, 461.073
6959, 461.073
6960, 461.073
6961, 461.073
6962, 461.073
6963, 461.073
6964, 461.073
6965, 461.073
6966, 461.073
6967, 461.073
6968, 461.073
6969, 461.073
6970, 461.073
6971, 461.073
6972, 461.073
6973, 461.073
6974, 461.073
6975, 461.073
6976, 461.073
6977, 461.073
6978, 461.073
6979, 461.073
6980, 461.073
6981, 461.073
6982, 461.073
6983, 461.073
6984, 461.073
6985, 461.073
6986, 461.073
6987, 461.073
6988, 461.073
6989, 461.073
6990, 461.073
6991, 461.073
6992, 461.073
6993, 461.073
6994, 461.073
6995, 461.073
6996, 461.073
6997, 461.073
6998, 461.073
6999, 461.073
7000, 461.073
7001, 461.073
7002, 461.073
7003, 461.073
7004, 461.073
7005, 461.073
7006, 461.073
7007, 461.073
7008, 461.073
7009, 461.073
7010, 461.073
7011, 461.073
7012, 461.073
7013, 461.073
7014, 461.073
7015, 461.073
7016, 461.073
7017, 461.073
7018, 461.073
7019, 461.073
7020, 461.073
7021, 461.073
7022, 461.073
7023, 461.073
7024, 461.073
7025, 461.073
7026, 461.073
7027, 461.073
7028, 461.073
7029, 461.073
7030, 461.073
7031, 461.073
7032, 461.073
7033, 461.073
7034, 461.073
7035, 461.073
7036, 461.073
7037, 461.073
7038, 461.073
7039, 461.073
7040, 461.073
7041, 461.073
7042, 461.073
7043, 461.073
7044, 461.073
7045, 461.073
7046, 461.073
7047, 461.073
7048, 461.073
7049, 461.073
7050, 461.073
7051, 461.073
7052, 461.073
7053, 461.073
7054, 461.073
7055, 461.073
7056, 461.073
7057, 461.073
7058, 461.073
7059, 461.073
7060, 461.073
7061, 461.073
7062, 461.073
7063, 461.073
7064, 461.073
7065, 461.073
7066, 461.073
7067, 461.073
7068, 461.073
7069, 461.073
7070, 461.073
7071, 461.073
7072, 461.073
7073, 461.073
7074, 461.073
7075, 461.073
7076, 461.073
7077, 461.073
7078, 461.073
7079, 461.073
7080, 461.073
7081, 461.073
7082, 461.073
7083, 461.073
7084, 461.073
7085, 461.073
7086, 461.073
7087, 461.073
7088, 461.073
7089, 461.073
7090, 461.073
7091, 461.073
7092, 461.073
7093, 461.073
7094, 461.073
7095, 461.073
7096, 461.073
7097, 461.073
7098, 461.073
7099, 461.073
7100, 461.073
7101, 461.073
7102, 461.073
7103, 461.073
7104, 461.073
7105, 461.073
7106, 461.073
7107, 461.073
7108, 461.073
7109, 461.073
7110, 461.073
7111, 461.073
7112, 461.073
7113, 461.073
7114, 461.073
7115, 461.073
7116, 461.073
7117, 461.073
7118, 461.073
7119, 461.073
7120, 461.073
7121, 461.073
7122, 461.073
7123, 461.073
7124, 461.073
7125, 461.073
7126, 461.073
7127, 461.073
7128, 461.073
7129, 461.073
7130, 461.073
7131, 461.073
7132, 461.073
7133, 461.073
7134, 461.073
7135, 461.073
7136, 461.073
7137, 461.073
7138, 461.073
7139, 461.073
7140, 461.073
7141, 461.073
7142, 461.073
7143, 461.073
7144, 461.073
7145, 461.073
7146, 461.073
7147, 461.073
7148, 461.073
7149, 461.073
7150, 461.073
7151, 461.073
7152, 461.073
7153, 461.073
7154, 461.073
7155, 461.073
7156, 461.073
7157, 461.073
7158, 461.073
7159, 461.073
7160, 461.073
7161, 461.073
7162, 461.073
7163, 461.073
7164, 461.073
7165, 461.073
7166, 461.073
7167, 461.073
7168, 461.073
7169, 461.073
7170, 461.073
7171, 461.073
7172, 461.073
7173, 461.073
7174, 461.073
7175, 461.073
7176, 461.073
7177, 461.073
7178, 461.073
7179, 461.073
7180, 461.073
7181, 461.073
7182, 461.073
7183, 461.073
7184, 461.073
7185, 461.073
7186, 461.073
7187, 461.073
7188, 461.073
7189, 461.073
7190, 461.073
7191, 461.073
7192, 461.073
7193, 461.073
7194, 461.073
7195, 461.073
7196, 461.073
7197, 461.073
7198, 461.073
7199, 461.073
7200, 461.073
7201, 461.073
7202, 461.073
7203, 461.073
7204, 461.073
7205, 461.073
7206, 461.073
7207, 461.073
7208, 461.073
7209, 461.073
7210, 461.073
7211, 461.073
7212, 461.073
7213, 461.073
7214, 461.073
7215, 461.073
7216, 461.073
7217, 461.073
7218, 461.073
7219, 461.073
7220, 461.073
7221, 461.073
7222, 461.073
7223, 461.073
7224, 461.073
7225, 461.073
7226, 461.073
7227, 461.073
7228, 461.073
7229, 461.073
7230, 461.073
7231, 461.073
7232, 461.073
7233, 461.073
7234, 461.073
7235, 461.073
7236, 461.073
7237, 461.073
7238, 461.073
7239, 461.073
7240, 461.073
7241, 461.073
7242, 461.073
7243, 461.073
7244, 461.073
7245, 461.073
7246, 461.073
7247, 461.073
7248, 461.073
7249, 461.073
7250, 461.073
7251, 461.073
7252, 461.073
7253, 461.073
7254, 461.073
7255, 461.073
7256, 461.073
7257, 461.073
7258, 461.073
7259, 461.073
7260, 461.073
7261, 461.073
7262, 461.073
7263, 461.073
7264, 461.073
7265, 461.073
7266, 461.073
7267, 461.073
7268, 461.073
7269, 461.073
7270, 461.073
7271, 461.073
7272, 461.073
7273, 461.073
7274, 461.073
7275, 461.073
7276, 461.073
7277, 461.073
7278, 461.073
7279, 461.073
7280, 461.073
7281, 461.073
7282, 461.073
7283, 461.073
7284, 461.073
7285, 461.073
7286, 461.073
7287, 461.073
7288, 461.073
7289, 461.073
7290, 461.073
7291, 461.073
7292, 461.073
7293, 461.073
7294, 461.073
7295, 461.073
7296, 461.073
7297, 461.073
7298, 461.073
7299, 461.073
7300, 461.073
7301, 461.073
7302, 461.073
7303, 461.073
7304, 461.073
7305, 461.073
7306, 461.073
7307, 461.073
7308, 461.073
7309, 461.073
7310, 461.073
7311, 461.073
7312, 461.073
7313, 461.073
7314, 461.073
7315, 461.073
7316, 461.073
7317, 461.073
7318, 461.073
7319, 461.073
7320, 461.073
7321, 461.073
7322, 461.073
7323, 461.073
7324, 461.073
7325, 461.073
7326, 461.073
7327, 461.073
7328, 461.073
7329, 461.073
7330, 461.073
7331, 461.073
7332, 461.073
7333, 461.073
7334, 461.073
7335, 461.073
7336, 461.073
7337, 461.073
7338, 461.073
7339, 461.073
7340, 461.073
7341, 461.073
7342, 461.073
7343, 461.073
7344, 461.073
7345, 461.073
7346, 461.073
7347, 461.073
7348, 461.073
7349, 461.073
7350, 461.073
7351, 461.073
7352, 461.073
7353, 461.073
7354, 461.073
7355, 461.073
7356, 461.073
7357, 461.073
7358, 461.073
7359, 461.073
7360, 461.073
7361, 461.073
7362, 461.073
7363, 461.073
7364, 461.073
7365, 461.073
7366, 461.073
7367, 461.073
7368, 461.073
7369, 461.073
7370, 461.073
7371, 461.073
7372, 461.073
7373, 461.073
7374, 461.073
7375, 461.073
7376, 461.073
7377, 461.073
7378, 461.073
7379, 461.073
7380, 461.073
7381, 461.073
7382, 461.073
7383, 461.073
7384, 461.073
7385, 461.073
7386, 461.073
7387, 461.073
7388, 461.073
7389, 461.073
7390, 461.073
7391, 461.073
7392, 461.073
7393, 461.073
7394, 461.073
7395, 461.073
7396, 461.073
7397, 461.073
7398, 461.073
7399, 461.073
7400, 461.073
7401, 461.073
7402, 461.073
7403, 461.073
7404, 461.073
7405, 461.073
7406, 461.073
7407, 461.073
7408, 461.073
7409, 461.073
7410, 461.073
7411, 461.073
7412, 461.073
7413, 461.073
7414, 461.073
7415, 461.073
7416, 461.073
7417, 461.073
7418, 461.073
7419, 461.073
7420, 461.073
7421, 461.073
7422, 461.073
7423, 461.073
7424, 461.073
7425, 461.073
7426, 461.073
7427, 461.073
7428, 461.073
7429, 461.073
7430, 461.073
7431, 461.073
7432, 461.073
7433, 461.073
7434, 461.073
7435, 461.073
7436, 461.073
7437, 461.073
7438, 461.073
7439, 461.073
7440, 461.073
7441, 461.073
7442, 461.073
7443, 461.073
7444, 461.073
7445, 461.073
7446, 461.073
7447, 461.073
7448, 461.073
7449, 461.073
7450, 461.073
7451, 461.073
7452, 461.073
7453, 461.073
7454, 461.073
7455, 461.073
7456, 461.073
7457, 461.073
7458, 461.073
7459, 461.073
7460, 461.073
7461, 461.073
7462, 461.073
7463, 461.073
7464, 461.073
7465, 461.073
7466, 461.073
7467, 461.073
7468, 461.073
7469, 461.073
7470, 461.073
7471, 461.073
7472, 461.073
7473, 461.073
7474, 461.073
7475, 461.073
7476, 461.073
7477, 461.073
7478, 461.073
7479, 461.073
7480, 461.073
7481, 461.073
7482, 461.073
7483, 461.073
7484, 461.073
7485, 461.073
7486, 461.073
7487, 461.073
7488, 461.073
7489, 461.073
7490, 461.073
7491, 461.073
7492, 461.073
7493, 461.073
7494, 461.073
7495, 461.073
7496, 461.073
7497, 461.073
7498, 461.073
7499, 461.073
7500, 461.073
7501, 461.073
7502, 461.073
7503, 461.073
7504, 461.073
7505, 461.073
7506, 461.073
7507, 461.073
7508, 461.073
7509, 461.073
7510, 461.073
7511, 461.073
7512, 461.073
7513, 461.073
7514, 461.073
7515, 461.073
7516, 461.073
7517, 461.073
7518, 461.073
7519, 461.073
7520, 461.073
7521, 461.073
7522, 461.073
7523, 461.073
7524, 461.073
7525, 461.073
7526, 461.073
7527, 461.073
7528, 461.073
7529, 461.073
7530, 461.073
7531, 461.073
7532, 461.073
7533, 461.073
7534, 461.073
7535, 461.073
7536, 461.073
7537, 461.073
7538, 461.073
7539, 461.073
7540, 461.073
7541, 461.073
7542, 461.073
7543, 461.073
7544, 461.073
7545, 461.073
7546, 461.073
7547, 461.073
7548, 461.073
7549, 461.073
7550, 461.073
7551, 461.073
7552, 461.073
7553, 461.073
7554, 461.073
7555, 461.073
7556, 461.073
7557, 461.073
7558, 461.073
7559, 461.073
7560, 461.073
7561, 461.073
7562, 461.073
7563, 461.073
7564, 461.073
7565, 461.073
7566, 461.073
7567, 461.073
7568, 461.073
7569, 461.073
7570, 461.073
7571, 461.073
7572, 461.073
7573, 461.073
7574, 461.073
7575, 461.073
7576, 461.073
7577, 461.073
7578, 461.073
7579, 461.073
7580, 461.073
7581, 461.073
7582, 461.073
7583, 461.073
7584, 461.073
7585, 461.073
7586, 461.073
7587, 461.073
7588, 461.073
7589, 461.073
7590, 461.073
7591, 461.073
7592, 461.073
7593, 461.073
7594, 461.073
7595, 461.073
7596, 461.073
7597, 461.073
7598, 461.073
7599, 461.073
7600, 461.073
7601, 461.073
7602, 461.073
7603, 461.073
7604, 461.073
7605, 461.073
7606, 461.073
7607, 461.073
7608, 461.073
7609, 461.073
7610, 461.073
7611, 461.073
7612, 461.073
7613, 461.073
7614, 461.073
7615, 461.073
7616, 461.073
7617, 461.073
7618, 461.073
7619, 461.073
7620, 461.073
7621, 461.073
7622, 461.073
7623, 461.073
7624, 461.073
7625, 461.073
7626, 461.073
7627, 461.073
7628, 461.073
7629, 461.073
7630, 461.073
7631, 461.073
7632, 461.073
7633, 461.073
7634, 461.073
7635, 461.073
7636, 461.073
7637, 461.073
7638, 461.073
7639, 461.073
7640, 461.073
7641, 461.073
7642, 461.073
7643, 461.073
7644, 461.073
7645, 461.073
7646, 461.073
7647, 461.073
7648, 461.073
7649, 461.073
7650, 461.073
7651, 461.073
7652, 461.073
7653, 461.073
7654, 461.073
7655, 461.073
7656, 461.073
7657, 461.073
7658, 461.073
7659, 461.073
7660, 461.073
7661, 461.073
7662, 461.073
7663, 461.073
7664, 461.073
7665, 461.073
7666, 461.073
7667, 461.073
7668, 461.073
7669, 461.073
7670, 461.073
7671, 461.073
7672, 461.073
7673, 461.073
7674, 461.073
7675, 461.073
7676, 461.073
7677, 461.073
7678, 461.073
7679, 461.073
7680, 461.073
7681, 461.073
7682, 461.073
7683, 461.073
7684, 461.073
7685, 461.073
7686, 461.073
7687, 461.073
7688, 461.073
7689, 461.073
7690, 461.073
7691, 461.073
7692, 461.073
7693, 461.073
7694, 461.073
7695, 461.073
7696, 461.073
7697, 461.073
7698, 461.073
7699, 461.073
7700, 461.073
7701, 461.073
7702, 461.073
7703, 461.073
7704, 461.073
7705, 461.073
7706, 461.073
7707, 461.073
7708, 461.073
7709, 461.073
7710, 461.073
7711, 461.073
7712, 461.073
7713, 461.073
7714, 461.073
7715, 461.073
7716, 461.073
7717, 461.073
7718, 461.073
7719, 461.073
7720, 461.073
7721, 461.073
7722, 461.073
7723, 461.073
7724, 461.073
7725, 461.073
7726, 461.073
7727, 461.073
7728, 461.073
7729, 461.073
7730, 461.073
7731, 461.073
7732, 461.073
7733, 461.073
7734, 461.073
7735, 461.073
7736, 461.073
7737, 461.073
7738, 461.073
7739, 461.073
7740, 461.073
7741, 461.073
7742, 461.073
7743, 461.073
7744, 461.073
7745, 461.073
7746, 461.073
7747, 461.073
7748, 461.073
7749, 461.073
7750, 461.073
7751, 461.073
7752, 461.073
7753, 461.073
7754, 461.073
7755, 461.073
7756, 461.073
7757, 461.073
7758, 461.073
7759, 461.073
7760, 461.073
7761, 461.073
7762, 461.073
7763, 461.073
7764, 461.073
7765, 461.073
7766, 461.073
7767, 461.073
7768, 461.073
7769, 461.073
7770, 461.073
7771, 461.073
7772, 461.073
7773, 461.073
7774, 461.073
7775, 461.073
7776, 461.073
7777, 461.073
7778, 461.073
7779, 461.073
7780, 461.073
7781, 461.073
7782, 461.073
7783, 461.073
7784, 461.073
7785, 461.073
7786, 461.073
7787, 461.073
7788, 461.073
7789, 461.073
7790, 461.073
7791, 461.073
7792, 461.073
7793, 461.073
7794, 461.073
7795, 461.073
7796, 461.073
7797, 461.073
7798, 461.073
7799, 461.073
7800, 461.073
7801, 461.073
7802, 461.073
7803, 461.073
7804, 461.073
7805, 461.073
7806, 461.073
7807, 461.073
7808, 461.073
7809, 461.073
7810, 461.073
7811, 461.073
7812, 461.073
7813, 461.073
7814, 461.073
7815, 461.073
7816, 461.073
7817, 461.073
7818, 461.073
7819, 461.073
7820, 461.073
7821, 461.073
7822, 461.073
7823, 461.073
7824, 461.073
7825, 461.073
7826, 461.073
7827, 461.073
7828, 461.073
7829, 461.073
7830, 461.073
7831, 461.073
7832, 461.073
7833, 461.073
7834, 461.073
7835, 461.073
7836, 461.073
7837, 461.073
7838, 461.073
7839, 461.073
7840, 461.073
7841, 461.073
7842, 461.073
7843, 461.073
7844, 461.073
7845, 461.073
7846, 461.073
7847, 461.073
7848, 461.073
7849, 461.073
7850, 461.073
7851, 461.073
7852, 461.073
7853, 461.073
7854, 461.073
7855, 461.073
7856, 461.073
7857, 461.073
7858, 461.073
7859, 461.073
7860, 461.073
7861, 461.073
7862, 461.073
7863, 461.073
7864, 461.073
7865, 461.073
7866, 461.073
7867, 461.073
7868, 461.073
7869, 461.073
7870, 461.073
7871, 461.073
7872, 461.073
7873, 461.073
7874, 461.073
7875, 461.073
7876, 461.073
7877, 461.073
7878, 461.073
7879, 461.073
7880, 461.073
7881, 461.073
7882, 461.073
7883, 461.073
7884, 461.073
7885, 461.073
7886, 461.073
7887, 461.073
7888, 461.073
7889, 461.073
7890, 461.073
7891, 461.073
7892, 461.073
7893, 461.073
7894, 461.073
7895, 461.073
7896, 461.073
7897, 461.073
7898, 461.073
7899, 461.073
7900, 461.073
7901, 461.073
7902, 461.073
7903, 461.073
7904, 461.073
7905, 461.073
7906, 461.073
7907, 461.073
7908, 461.073
7909, 461.073
7910, 461.073
7911, 461.073
7912, 461.073
7913, 461.073
7914, 461.073
7915, 461.073
7916, 461.073
7917, 461.073
7918, 461.073
7919, 461.073
7920, 461.073
7921, 461.073
7922, 461.073
7923, 461.073
7924, 461.073
7925, 461.073
7926, 461.073
7927, 461.073
7928, 461.073
7929, 461.073
7930, 461.073
7931, 461.073
7932, 461.073
7933, 461.073
7934, 461.073
7935, 461.073
7936, 461.073
7937, 461.073
7938, 461.073
7939, 461.073
7940, 461.073
7941, 461.073
7942, 461.073
7943, 461.073
7944, 461.073
7945, 461.073
7946, 461.073
7947, 461.073
7948, 461.073
7949, 461.073
7950, 461.073
7951, 461.073
7952, 461.073
7953, 461.073
7954, 461.073
7955, 461.073
7956, 461.073
7957, 461.073
7958, 461.073
7959, 461.073
7960, 461.073
7961, 461.073
7962, 461.073
7963, 461.073
7964, 461.073
7965, 461.073
7966, 461.073
7967, 461.073
7968, 461.073
7969, 461.073
7970, 461.073
7971, 461.073
7972, 461.073
7973, 461.073
7974, 461.073
7975, 461.073
7976, 461.073
7977, 461.073
7978, 461.073
7979, 461.073
7980, 461.073
7981, 461.073
7982, 461.073
7983, 461.073
7984, 461.073
7985, 461.073
7986, 461.073
7987, 461.073
7988, 461.073
7989, 461.073
7990, 461.073
7991, 461.073
7992, 461.073
7993, 461.073
7994, 461.073
7995, 461.073
7996, 461.073
7997, 461.073
7998, 461.073
7999, 461.073
8000, 461.073
8001, 461.073
8002, 461.073
8003, 461.073
8004, 461.073
8005, 461.073
8006, 461.073
8007, 461.073
8008, 461.073
8009, 461.073
8010, 461.073
8011, 461.073
8012, 461.073
8013, 461.073
8014, 461.073
8015, 461.073
8016, 461.073
8017, 461.073
8018, 461.073
8019, 461.073
8020, 461.073
8021, 461.073
8022, 461.073
8023, 461.073
8024, 461.073
8025, 461.073
8026, 461.073
8027, 461.073
8028, 461.073
8029, 461.073
8030, 461.073
8031, 461.073
8032, 461.073
8033, 461.073
8034, 461.073
8035, 461.073
8036, 461.073
8037, 461.073
8038, 461.073
8039, 461.073
8040, 461.073
8041, 461.073
8042, 461.073
8043, 461.073
8044, 461.073
8045, 461.073
8046, 461.073
8047, 461.073
8048, 461.073
8049, 461.073
8050, 461.073
8051, 461.073
8052, 461.073
8053, 461.073
8054, 461.073
8055, 461.073
8056, 461.073
8057, 461.073
8058, 461.073
8059, 461.073
8060, 461.073
8061, 461.073
8062, 461.073
8063, 461.073
8064, 461.073
8065, 461.073
8066, 461.073
8067, 461.073
8068, 461.073
8069, 461.073
8070, 461.073
8071, 461.073
8072, 461.073
8073, 461.073
8074, 461.073
8075, 461.073
8076, 461.073
8077, 461.073
8078, 461.073
8079, 461.073
8080, 461.073
8081, 461.073
8082, 461.073
8083, 461.073
8084, 461.073
8085, 461.073
8086, 461.073
8087, 461.073
8088, 461.073
8089, 461.073
8090, 461.073
8091, 461.073
8092, 461.073
8093, 461.073
8094, 461.073
8095, 461.073
8096, 461.073
8097, 461.073
8098, 461.073
8099, 461.073
8100, 461.073
8101, 461.073
8102, 461.073
8103, 461.073
8104, 461.073
8105, 461.073
8106, 461.073
8107, 461.073
8108, 461.073
8109, 461.073
8110, 461.073
8111, 461.073
8112, 461.073
8113, 461.073
8114, 461.073
8115, 461.073
8116, 461.073
8117, 461.073
8118, 461.073
8119, 461.073
8120, 461.073
8121, 461.073
8122, 461.073
8123, 461.073
8124, 461.073
8125, 461.073
8126, 461.073
8127, 461.073
8128, 461.073
8129, 461.073
8130, 461.073
8131, 461.073
8132, 461.073
8133, 461.073
8134, 461.073
8135, 461.073
8136, 461.073
8137, 461.073
8138, 461.073
8139, 461.073
8140, 461.073
8141, 461.073
8142, 461.073
8143, 461.073
8144, 461.073
8145, 461.073
8146, 461.073
8147, 461.073
8148, 461.073
8149, 461.073
8150, 461.073
8151, 461.073
8152, 461.073
8153, 461.073
8154, 461.073
8155, 461.073
8156, 461.073
8157, 461.073
8158, 461.073
8159, 461.073
8160, 461.073
8161, 461.073
8162, 461.073
8163, 461.073
8164, 461.073
8165, 461.073
8166, 461.073
8167, 461.073
8168, 461.073
8169, 461.073
8170, 461.073
8171, 461.073
8172, 461.073
8173, 461.073
8174, 461.073
8175, 461.073
8176, 461.073
8177, 461.073
8178, 461.073
8179, 461.073
8180, 461.073
8181, 461.073
8182, 461.073
8183, 461.073
8184, 461.073
8185, 461.073
8186, 461.073
8187, 461.073
8188, 461.073
8189, 461.073
8190, 461.073
8191, 461.073
8192, 461.073
8193, 461.073
8194, 461.073
8195, 461.073
8196, 461.073
8197, 461.073
8198, 461.073
8199, 461.073
8200, 461.073
8201, 461.073
8202, 461.073
8203, 461.073
8204, 461.073
*NODE FILE
U
*EL FILE
S
*EL PRINT, ELSET=DISC
S
*END STEP
** ---- step 3: idle + thermal field
*STEP
*STATIC
*DLOAD
DISC, CENTRIF, 1.441031e+07, 0., 0., 0., 0., 1., 0.
8, P2, -8.596880e+06
17, P2, -8.596880e+06
27, P2, -8.596880e+06
37, P2, -8.596880e+06
48, P2, -8.596880e+06
59, P2, -8.596880e+06
71, P2, -8.596880e+06
83, P2, -8.596880e+06
96, P2, -8.596880e+06
110, P2, -8.596880e+06
124, P2, -8.596880e+06
139, P2, -8.596880e+06
155, P2, -8.596880e+06
171, P2, -8.596880e+06
187, P2, -8.596880e+06
203, P2, -8.596880e+06
219, P2, -8.596880e+06
236, P2, -8.596880e+06
253, P2, -8.596880e+06
270, P2, -8.596880e+06
287, P2, -8.596880e+06
304, P2, -8.596880e+06
322, P2, -8.596880e+06
340, P2, -8.596880e+06
358, P2, -8.596880e+06
377, P2, -8.596880e+06
396, P2, -8.596880e+06
415, P2, -8.596880e+06
434, P2, -8.596880e+06
454, P2, -8.596880e+06
474, P2, -8.596880e+06
495, P2, -8.596880e+06
516, P2, -8.596880e+06
537, P2, -8.596880e+06
559, P2, -8.596880e+06
581, P2, -8.596880e+06
604, P2, -8.596880e+06
627, P2, -8.596880e+06
650, P2, -8.596880e+06
674, P2, -8.596880e+06
699, P2, -8.596880e+06
724, P2, -8.596880e+06
750, P2, -8.596880e+06
776, P2, -8.596880e+06
803, P2, -8.596880e+06
830, P2, -8.596880e+06
858, P2, -8.596880e+06
886, P2, -8.596880e+06
915, P2, -8.596880e+06
945, P2, -8.596880e+06
975, P2, -8.596880e+06
1006, P2, -8.596880e+06
1038, P2, -8.596880e+06
1070, P2, -8.596880e+06
1103, P2, -8.596880e+06
1137, P2, -8.596880e+06
1172, P2, -8.596880e+06
1208, P2, -8.596880e+06
1245, P2, -8.596880e+06
1282, P2, -8.596880e+06
1320, P2, -8.596880e+06
1359, P2, -8.596880e+06
1399, P2, -8.596880e+06
1440, P2, -8.596880e+06
1482, P2, -8.596880e+06
1525, P2, -8.596880e+06
1569, P2, -8.596880e+06
1614, P2, -8.596880e+06
1660, P2, -8.596880e+06
1708, P2, -8.596880e+06
1759, P2, -8.596880e+06
1811, P2, -8.596880e+06
1864, P2, -8.596880e+06
1920, P2, -8.596880e+06
1977, P2, -8.596880e+06
2035, P2, -8.596880e+06
2095, P2, -8.596880e+06
2156, P2, -8.596880e+06
2219, P2, -8.596880e+06
2284, P2, -8.596880e+06
2351, P2, -8.596880e+06
2419, P2, -8.596880e+06
2489, P2, -8.596880e+06
2561, P2, -8.596880e+06
2635, P2, -8.596880e+06
2712, P2, -8.596880e+06
2791, P2, -8.596880e+06
2872, P2, -8.596880e+06
2955, P2, -8.596880e+06
3042, P2, -8.596880e+06
3131, P2, -8.596880e+06
3223, P2, -8.596880e+06
3317, P2, -8.596880e+06
3416, P2, -8.596880e+06
3517, P2, -8.596880e+06
3621, P2, -8.596880e+06
3729, P2, -8.596880e+06
3842, P2, -8.596880e+06
3959, P2, -8.596880e+06
4081, P2, -8.596880e+06
4209, P2, -8.596880e+06
4346, P2, -8.596880e+06
4489, P2, -8.596880e+06
*TEMPERATURE
1, 308.150
2, 308.150
3, 309.968
4, 309.968
5, 308.150
6, 309.968
7, 308.150
8, 309.968
9, 308.150
10, 309.968
11, 308.150
12, 309.968
13, 308.150
14, 309.968
15, 308.150
16, 309.968
17, 308.150
18, 309.968
19, 311.787
20, 311.787
21, 311.787
22, 311.787
23, 311.787
24, 311.787
25, 311.787
26, 311.787
27, 311.787
28, 309.968
29, 311.787
30, 313.605
31, 313.605
32, 313.605
33, 313.605
34, 313.605
35, 313.605
36, 313.605
37, 313.605
38, 313.605
39, 313.605
40, 311.787
41, 313.605
42, 315.424
43, 315.424
44, 315.424
45, 315.424
46, 315.424
47, 315.424
48, 315.424
49, 315.424
50, 315.424
51, 315.424
52, 315.424
53, 317.242
54, 317.242
55, 317.242
56, 317.242
57, 317.242
58, 317.242
59, 317.242
60, 317.242
61, 317.242
62, 317.242
63, 317.242
64, 315.424
65, 317.242
66, 319.061
67, 319.061
68, 319.061
69, 319.061
70, 319.061
71, 319.061
72, 319.061
73, 319.061
74, 319.061
75, 319.061
76, 319.061
77, 319.061
78, 320.879
79, 320.879
80, 320.879
81, 320.879
82, 320.879
83, 320.879
84, 320.879
85, 320.879
86, 320.879
87, 320.879
88, 320.879
89, 320.879
90, 319.061
91, 320.879
92, 322.698
93, 322.698
94, 322.698
95, 322.698
96, 322.698
97, 322.698
98, 322.698
99, 322.698
100, 322.698
101, 322.698
102, 322.698
103, 322.698
104, 322.698
105, 324.516
106, 324.516
107, 324.516
108, 324.516
109, 324.516
110, 324.516
111, 324.516
112, 324.516
113, 324.516
114, 324.516
115, 324.516
116, 324.516
117, 324.516
118, 322.698
119, 324.516
120, 326.335
121, 326.335
122, 326.335
123, 326.335
124, 326.335
125, 326.335
126, 326.335
127, 326.335
128, 326.335
129, 326.335
130, 326.335
131, 326.335
132, 326.335
133, 326.335
134, 324.516
135, 326.335
136, 328.153
137, 328.153
138, 328.153
139, 328.153
140, 328.153
141, 328.153
142, 328.153
143, 328.153
144, 328.153
145, 328.153
146, 328.153
147, 328.153
148, 328.153
149, 328.153
150, 328.153
151, 329.972
152, 329.972
153, 329.972
154, 329.972
155, 329.972
156, 329.972
157, 329.972
158, 329.972
159, 329.972
160, 329.972
161, 329.972
162, 329.972
163, 329.972
164, 329.972
165, 329.972
166, 328.153
167, 329.972
168, 331.088
169, 331.088
170, 331.088
171, 331.088
172, 331.088
173, 331.088
174, 331.088
175, 331.088
176, 331.088
177, 331.088
178, 331.088
179, 331.088
180, 331.088
181, 331.088
182, 331.088
183, 331.088
184, 329.972
185, 331.088
186, 331.790
187, 331.790
188, 331.790
189, 331.790
190, 331.790
191, 331.790
192, 331.790
193, 331.790
194, 331.790
195, 331.790
196, 331.790
197, 331.790
198, 331.790
199, 331.790
200, 331.790
201, 331.790
202, 331.790
203, 333.609
204, 333.609
205, 333.609
206, 333.609
207, 333.609
208, 333.609
209, 333.609
210, 333.609
211, 333.609
212, 333.609
213, 333.609
214, 333.609
215, 333.609
216, 333.609
217, 333.609
218, 333.609
219, 333.609
220, 335.427
221, 335.427
222, 335.427
223, 335.427
224, 335.427
225, 335.427
226, 335.427
227, 335.427
228, 335.427
229, 335.427
230, 335.427
231, 335.427
232, 335.427
233, 335.427
234, 335.427
235, 335.427
236, 335.427
237, 337.246
238, 337.246
239, 337.246
240, 337.246
241, 337.246
242, 337.246
243, 337.246
244, 337.246
245, 337.246
246, 337.246
247, 337.246
248, 337.246
249, 337.246
250, 337.246
251, 337.246
252, 337.246
253, 337.246
254, 339.064
255, 339.064
256, 339.064
257, 339.064
258, 339.064
259, 339.064
260, 339.064
261, 339.064
262, 339.064
263, 339.064
264, 339.064
265, 339.064
266, 339.064
267, 339.064
268, 339.064
269, 339.064
270, 339.064
271, 337.246
272, 339.064
273, 340.883
274, 340.883
275, 340.883
276, 340.883
277, 340.883
278, 340.883
279, 340.883
280, 340.883
281, 340.883
282, 340.883
283, 340.883
284, 340.883
285, 340.883
286, 340.883
287, 340.883
288, 340.883
289, 340.883
290, 340.883
291, 342.262
292, 342.262
293, 342.262
294, 342.262
295, 342.262
296, 342.262
297, 342.262
298, 342.262
299, 342.262
300, 342.262
301, 342.262
302, 342.262
303, 342.262
304, 342.262
305, 342.262
306, 342.262
307, 342.262
308, 342.262
309, 342.701
310, 342.701
311, 342.701
312, 342.701
313, 342.701
314, 342.701
315, 342.701
316, 342.701
317, 342.701
318, 342.701
319, 342.701
320, 342.701
321, 342.701
322, 342.701
323, 342.701
324, 342.701
325, 342.701
326, 342.701
327, 344.520
328, 344.520
329, 344.520
330, 344.520
331, 344.520
332, 344.520
333, 344.520
334, 344.520
335, 344.520
336, 344.520
337, 344.520
338, 344.520
339, 344.520
340, 344.520
341, 344.520
342, 344.520
343, 344.520
344, 344.520
345, 346.338
346, 346.338
347, 346.338
348, 346.338
349, 346.338
350, 346.338
351, 346.338
352, 346.338
353, 346.338
354, 346.338
355, 346.338
356, 346.338
357, 346.338
358, 346.338
359, 346.338
360, 346.338
361, 346.338
362, 346.338
363, 344.520
364, 346.338
365, 348.157
366, 348.157
367, 348.157
368, 348.157
369, 348.157
370, 348.157
371, 348.157
372, 348.157
373, 348.157
374, 348.157
375, 348.157
376, 348.157
377, 348.157
378, 348.157
379, 348.157
380, 348.157
381, 348.157
382, 348.157
383, 348.157
384, 349.975
385, 349.975
386, 349.975
387, 349.975
388, 349.975
389, 349.975
390, 349.975
391, 349.975
392, 349.975
393, 349.975
394, 349.975
395, 349.975
396, 349.975
397, 349.975
398, 349.975
399, 349.975
400, 349.975
401, 349.975
402, 349.975
403, 351.793
404, 351.793
405, 351.793
406, 351.793
407, 351.793
408, 351.793
409, 351.793
410, 351.793
411, 351.793
412, 351.793
413, 351.793
414, 351.793
415, 351.793
416, 351.793
417, 351.793
418, 351.793
419, 351.793
420, 351.793
421, 351.793
422, 349.975
423, 351.793
424, 353.180
425, 353.180
426, 353.180
427, 353.180
428, 353.180
429, 353.180
430, 353.180
431, 353.180
432, 353.180
433, 353.180
434, 353.180
435, 353.180
436, 353.180
437, 353.180
438, 353.180
439, 353.180
440, 353.180
441, 353.180
442, 353.180
443, 353.180
444, 353.612
445, 353.612
446, 353.612
447, 353.612
448, 353.612
449, 353.612
450, 353.612
451, 353.612
452, 353.612
453, 353.612
454, 353.612
455, 353.612
456, 353.612
457, 353.612
458, 353.612
459, 353.612
460, 353.612
461, 353.612
462, 353.612
463, 353.612
464, 355.430
465, 355.430
466, 355.430
467, 355.430
468, 355.430
469, 355.430
470, 355.430
471, 355.430
472, 355.430
473, 355.430
474, 355.430
475, 355.430
476, 355.430
477, 355.430
478, 355.430
479, 355.430
480, 355.430
481, 355.430
482, 355.430
483, 355.430
484, 357.249
485, 357.249
486, 357.249
487, 357.249
488, 357.249
489, 357.249
490, 357.249
491, 357.249
492, 357.249
493, 357.249
494, 357.249
495, 357.249
496, 357.249
497, 357.249
498, 357.249
499, 357.249
500, 357.249
501, 357.249
502, 357.249
503, 357.249
504, 355.430
505, 357.249
506, 359.067
507, 359.067
508, 359.067
509, 359.067
510, 359.067
511, 359.067
512, 359.067
513, 359.067
514, 359.067
515, 359.067
516, 359.067
517, 359.067
518, 359.067
519, 359.067
520, 359.067
521, 359.067
522, 359.067
523, 359.067
524, 359.067
525, 359.067
526, 359.067
527, 360.886
528, 360.886
529, 360.886
530, 360.886
531, 360.886
532, 360.886
533, 360.886
534, 360.886
535, 360.886
536, 360.886
537, 360.886
538, 360.886
539, 360.886
540, 360.886
541, 360.886
542, 360.886
543, 360.886
544, 360.886
545, 360.886
546, 360.886
547, 360.886
548, 359.067
549, 360.886
550, 362.704
551, 362.704
552, 362.704
553, 362.704
554, 362.704
555, 362.704
556, 362.704
557, 362.704
558, 362.704
559, 362.704
560, 362.704
561, 362.704
562, 362.704
563, 362.704
564, 362.704
565, 362.704
566, 362.704
567, 362.704
568, 362.704
569, 362.704
570, 362.704
571, 362.704
572, 363.802
573, 363.802
574, 363.802
575, 363.802
576, 363.802
577, 363.802
578, 363.802
579, 363.802
580, 363.802
581, 363.802
582, 363.802
583, 363.802
584, 363.802
585, 363.802
586, 363.802
587, 363.802
588, 363.802
589, 363.802
590, 363.802
591, 363.802
592, 363.802
593, 363.802
594, 364.523
595, 364.523
596, 364.523
597, 364.523
598, 364.523
599, 364.523
600, 364.523
601, 364.523
602, 364.523
603, 364.523
604, 364.523
605, 364.523
606, 364.523
607, 364.523
608, 364.523
609, 364.523
610, 364.523
611, 364.523
612, 364.523
613, 364.523
614, 364.523
615, 364.523
616, 363.802
617, 364.523
618, 366.341
619, 366.341
620, 366.341
621, 366.341
622, 366.341
623, 366.341
624, 366.341
625, 366.341
626, 366.341
627, 366.341
628, 366.341
629, 366.341
630, 366.341
631, 366.341
632, 366.341
633, 366.341
634, 366.341
635, 366.341
636, 366.341
637, 366.341
638, 366.341
639, 366.341
640, 366.341
641, 368.160
642, 368.160
643, 368.160
644, 368.160
645, 368.160
646, 368.160
647, 368.160
648, 368.160
649, 368.160
650, 368.160
651, 368.160
652, 368.160
653, 368.160
654, 368.160
655, 368.160
656, 368.160
657, 368.160
658, 368.160
659, 368.160
660, 368.160
661, 368.160
662, 368.160
663, 368.160
664, 366.341
665, 368.160
666, 369.978
667, 369.978
668, 369.978
669, 369.978
670, 369.978
671, 369.978
672, 369.978
673, 369.978
674, 369.978
675, 369.978
676, 369.978
677, 369.978
678, 369.978
679, 369.978
680, 369.978
681, 369.978
682, 369.978
683, 369.978
684, 369.978
685, 369.978
686, 369.978
687, 369.978
688, 369.978
689, 369.978
690, 371.797
691, 371.797
692, 371.797
693, 371.797
694, 371.797
695, 371.797
696, 371.797
697, 371.797
698, 371.797
699, 371.797
700, 371.797
701, 371.797
702, 371.797
703, 371.797
704, 371.797
705, 371.797
706, 371.797
707, 371.797
708, 371.797
709, 371.797
710, 371.797
711, 371.797
712, 371.797
713, 371.797
714, 373.615
715, 373.615
716, 373.615
717, 373.615
718, 373.615
719, 373.615
720, 373.615
721, 373.615
722, 373.615
723, 373.615
724, 373.615
725, 373.615
726, 373.615
727, 373.615
728, 373.615
729, 373.615
730, 373.615
731, 373.615
732, 373.615
733, 373.615
734, 373.615
735, 373.615
736, 373.615
737, 373.615
738, 371.797
739, 373.615
740, 374.088
741, 374.088
742, 374.088
743, 374.088
744, 374.088
745, 374.088
746, 374.088
747, 374.088
748, 374.088
749, 374.088
750, 374.088
751, 374.088
752, 374.088
753, 374.088
754, 374.088
755, 374.088
756, 374.088
757, 374.088
758, 374.088
759, 374.088
760, 374.088
761, 374.088
762, 374.088
763, 374.088
764, 374.088
765, 373.615
766, 374.088
767, 375.434
768, 375.434
769, 375.434
770, 375.434
771, 375.434
772, 375.434
773, 375.434
774, 375.434
775, 375.434
776, 375.434
777, 375.434
778, 375.434
779, 375.434
780, 375.434
781, 375.434
782, 375.434
783, 375.434
784, 375.434
785, 375.434
786, 375.434
787, 375.434
788, 375.434
789, 375.434
790, 375.434
791, 375.434
792, 375.434
793, 377.252
794, 377.252
795, 377.252
796, 377.252
797, 377.252
798, 377.252
799, 377.252
800, 377.252
801, 377.252
802, 377.252
803, 377.252
804, 377.252
805, 377.252
806, 377.252
807, 377.252
808, 377.252
809, 377.252
810, 377.252
811, 377.252
812, 377.252
813, 377.252
814, 377.252
815, 377.252
816, 377.252
817, 377.252
818, 377.252
819, 375.434
820, 377.252
821, 379.071
822, 379.071
823, 379.071
824, 379.071
825, 379.071
826, 379.071
827, 379.071
828, 379.071
829, 379.071
830, 379.071
831, 379.071
832, 379.071
833, 379.071
834, 379.071
835, 379.071
836, 379.071
837, 379.071
838, 379.071
839, 379.071
840, 379.071
841, 379.071
842, 379.071
843, 379.071
844, 379.071
845, 379.071
846, 379.071
847, 379.071
848, 380.889
849, 380.889
850, 380.889
851, 380.889
852, 380.889
853, 380.889
854, 380.889
855, 380.889
856, 380.889
857, 380.889
858, 380.889
859, 380.889
860, 380.889
861, 380.889
862, 380.889
863, 380.889
864, 380.889
865, 380.889
866, 380.889
867, 380.889
868, 380.889
869, 380.889
870, 380.889
871, 380.889
872, 380.889
873, 380.889
874, 380.889
875, 379.071
876, 380.889
877, 382.708
878, 382.708
879, 382.708
880, 382.708
881, 382.708
882, 382.708
883, 382.708
884, 382.708
885, 382.708
886, 382.708
887, 382.708
888, 382.708
889, 382.708
890, 382.708
891, 382.708
892, 382.708
893, 382.708
894, 382.708
895, 382.708
896, 382.708
897, 382.708
898, 382.708
899, 382.708
900, 382.708
901, 382.708
902, 382.708
903, 382.708
904, 382.708
905, 384.000
906, 384.000
907, 384.000
908, 384.000
909, 384.000
910, 384.000
911, 384.000
912, 384.000
913, 384.000
914, 384.000
915, 384.000
916, 384.000
917, 384.000
918, 384.000
919, 384.000
920, 384.000
921, 384.000
922, 384.000
923, 384.000
924, 384.000
925, 384.000
926, 384.000
927, 384.000
928, 384.000
929, 384.000
930, 384.000
931, 384.000
932, 384.000
933, 382.708
934, 384.000
935, 384.526
936, 384.526
937, 384.526
938, 384.526
939, 384.526
940, 384.526
941, 384.526
942, 384.526
943, 384.526
944, 384.526
945, 384.526
946, 384.526
947, 384.526
948, 384.526
949, 384.526
950, 384.526
951, 384.526
952, 384.526
953, 384.526
954, 384.526
955, 384.526
956, 384.526
957, 384.526
958, 384.526
959, 384.526
960, 384.526
961, 384.526
962, 384.526
963, 384.526
964, 386.345
965, 386.345
966, 386.345
967, 386.345
968, 386.345
969, 386.345
970, 386.345
971, 386.345
972, 386.345
973, 386.345
974, 386.345
975, 386.345
976, 386.345
977, 386.345
978, 386.345
979, 386.345
980, 386.345
981, 386.345
982, 386.345
983, 386.345
984, 386.345
985, 386.345
986, 386.345
987, 386.345
988, 386.345
989, 386.345
990, 386.345
991, 386.345
992, 386.345
993, 384.526
994, 386.345
995, 388.163
996, 388.163
997, 388.163
998, 388.163
999, 388.163
1000, 388.163
1001, 388.163
1002, 388.163
1003, 388.163
1004, 388.163
1005, 388.163
1006, 388.163
1007, 388.163
1008, 388.163
1009, 388.163
1010, 388.163
1011, 388.163
1012, 388.163
1013, 388.163
1014, 388.163
1015, 388.163
1016, 388.163
1017, 388.163
1018, 388.163
1019, 388.163
1020, 388.163
1021, 388.163
1022, 388.163
1023, 388.163
1024, 388.163
1025, 386.345
1026, 388.163
1027, 389.982
1028, 389.982
1029, 389.982
1030, 389.982
1031, 389.982
1032, 389.982
1033, 389.982
1034, 389.982
1035, 389.982
1036, 389.982
1037, 389.982
1038, 389.982
1039, 389.982
1040, 389.982
1041, 389.982
1042, 389.982
1043, 389.982
1044, 389.982
1045, 389.982
1046, 389.982
1047, 389.982
1048, 389.982
1049, 389.982
1050, 389.982
1051, 389.982
1052, 389.982
1053, 389.982
1054, 389.982
1055, 389.982
1056, 389.982
1057, 389.982
1058, 391.800
1059, 391.800
1060, 391.800
1061, 391.800
1062, 391.800
1063, 391.800
1064, 391.800
1065, 391.800
1066, 391.800
1067, 391.800
1068, 391.800
1069, 391.800
1070, 391.800
1071, 391.800
1072, 391.800
1073, 391.800
1074, 391.800
1075, 391.800
1076, 391.800
1077, 391.800
1078, 391.800
1079, 391.800
1080, 391.800
1081, 391.800
1082, 391.800
1083, 391.800
1084, 391.800
1085, 391.800
1086, 391.800
1087, 391.800
1088, 391.800
1089, 389.982
1090, 391.800
1091, 393.496
1092, 393.496
1093, 393.496
1094, 393.496
1095, 393.496
1096, 393.496
1097, 393.496
1098, 393.496
1099, 393.496
1100, 393.496
1101, 393.496
1102, 393.496
1103, 393.496
1104, 393.496
1105, 393.496
1106, 393.496
1107, 393.496
1108, 393.496
1109, 393.496
1110, 393.496
1111, 393.496
1112, 393.496
1113, 393.496
1114, 393.496
1115, 393.496
1116, 393.496
1117, 393.496
1118, 393.496
1119, 393.496
1120, 393.496
1121, 393.496
1122, 393.496
1123, 391.800
1124, 393.496
1125, 393.619
1126, 393.619
1127, 393.619
1128, 393.619
1129, 393.619
1130, 393.619
1131, 393.619
1132, 393.619
1133, 393.619
1134, 393.619
1135, 393.619
1136, 393.619
1137, 393.619
1138, 393.619
1139, 393.619
1140, 393.619
1141, 393.619
1142, 393.619
1143, 393.619
1144, 393.619
1145, 393.619
1146, 393.619
1147, 393.619
1148, 393.619
1149, 393.619
1150, 393.619
1151, 393.619
1152, 393.619
1153, 393.619
1154, 393.619
1155, 393.619
1156, 393.619
1157, 393.619
1158, 395.437
1159, 395.437
1160, 395.437
1161, 395.437
1162, 395.437
1163, 395.437
1164, 395.437
1165, 395.437
1166, 395.437
1167, 395.437
1168, 395.437
1169, 395.437
1170, 395.437
1171, 395.437
1172, 395.437
1173, 395.437
1174, 395.437
1175, 395.437
1176, 395.437
1177, 395.437
1178, 395.437
1179, 395.437
1180, 395.437
1181, 395.437
1182, 395.437
1183, 395.437
1184, 395.437
1185, 395.437
1186, 395.437
1187, 395.437
1188, 395.437
1189, 395.437
1190, 395.437
1191, 393.619
1192, 395.437
1193, 397.255
1194, 397.255
1195, 397.255
1196, 397.255
1197, 397.255
1198, 397.255
1199, 397.255
1200, 397.255
1201, 397.255
1202, 397.255
1203, 397.255
1204, 397.255
1205, 397.255
1206, 397.255
1207, 397.255
1208, 397.255
1209, 397.255
1210, 397.255
1211, 397.255
1212, 397.255
1213, 397.255
1214, 397.255
1215, 397.255
1216, 397.255
1217, 397.255
1218, 397.255
1219, 397.255
1220, 397.255
1221, 397.255
1222, 397.255
1223, 397.255
1224, 397.255
1225, 397.255
1226, 397.255
1227, 395.437
1228, 397.255
1229, 399.074
1230, 399.074
1231, 399.074
1232, 399.074
1233, 399.074
1234, 399.074
1235, 399.074
1236, 399.074
1237, 399.074
1238, 399.074
1239, 399.074
1240, 399.074
1241, 399.074
1242, 399.074
1243, 399.074
1244, 399.074
1245, 399.074
1246, 399.074
1247, 399.074
1248, 399.074
1249, 399.074
1250, 399.074
1251, 399.074
1252, 399.074
1253, 399.074
1254, 399.074
1255, 399.074
1256, 399.074
1257, 399.074
1258, 399.074
1259, 399.074
1260, 399.074
1261, 399.074
1262, 399.074
1263, 399.074
1264, 397.255
1265, 399.074
1266, 400.892
1267, 400.892
1268, 400.892
1269, 400.892
1270, 400.892
1271, 400.892
1272, 400.892
1273, 400.892
1274, 400.892
1275, 400.892
1276, 400.892
1277, 400.892
1278, 400.892
1279, 400.892
1280, 400.892
1281, 400.892
1282, 400.892
1283, 400.892
1284, 400.892
1285, 400.892
1286, 400.892
1287, 400.892
1288, 400.892
1289, 400.892
1290, 400.892
1291, 400.892
1292, 400.892
1293, 400.892
1294, 400.892
1295, 400.892
1296, 400.892
1297, 400.892
1298, 400.892
1299, 400.892
1300, 400.892
1301, 400.892
1302, 399.074
1303, 400.892
1304, 402.537
1305, 402.537
1306, 402.537
1307, 402.537
1308, 402.537
1309, 402.537
1310, 402.537
1311, 402.537
1312, 402.537
1313, 402.537
1314, 402.537
1315, 402.537
1316, 402.537
1317, 402.537
1318, 402.537
1319, 402.537
1320, 402.537
1321, 402.537
1322, 402.537
1323, 402.537
1324, 402.537
1325, 402.537
1326, 402.537
1327, 402.537
1328, 402.537
1329, 402.537
1330, 402.537
1331, 402.537
1332, 402.537
1333, 402.537
1334, 402.537
1335, 402.537
1336, 402.537
1337, 402.537
1338, 402.537
1339, 402.537
1340, 402.537
1341, 400.892
1342, 402.537
1343, 402.711
1344, 402.711
1345, 402.711
1346, 402.711
1347, 402.711
1348, 402.711
1349, 402.711
1350, 402.711
1351, 402.711
1352, 402.711
1353, 402.711
1354, 402.711
1355, 402.711
1356, 402.711
1357, 402.711
1358, 402.711
1359, 402.711
1360, 402.711
1361, 402.711
1362, 402.711
1363, 402.711
1364, 402.711
1365, 402.711
1366, 402.711
1367, 402.711
1368, 402.711
1369, 402.711
1370, 402.711
1371, 402.711
1372, 402.711
1373, 402.711
1374, 402.711
1375, 402.711
1376, 402.711
1377, 402.711
1378, 402.711
1379, 402.711
1380, 402.711
1381, 404.529
1382, 404.529
1383, 404.529
1384, 404.529
1385, 404.529
1386, 404.529
1387, 404.529
1388, 404.529
1389, 404.529
1390, 404.529
1391, 404.529
1392, 404.529
1393, 404.529
1394, 404.529
1395, 404.529
1396, 404.529
1397, 404.529
1398, 404.529
1399, 404.529
1400, 404.529
1401, 404.529
1402, 404.529
1403, 404.529
1404, 404.529
1405, 404.529
1406, 404.529
1407, 404.529
1408, 404.529
1409, 404.529
1410, 404.529
1411, 404.529
1412, 404.529
1413, 404.529
1414, 404.529
1415, 404.529
1416, 404.529
1417, 404.529
1418, 404.529
1419, 402.711
1420, 404.529
1421, 406.348
1422, 406.348
1423, 406.348
1424, 406.348
1425, 406.348
1426, 406.348
1427, 406.348
1428, 406.348
1429, 406.348
1430, 406.348
1431, 406.348
1432, 406.348
1433, 406.348
1434, 406.348
1435, 406.348
1436, 406.348
1437, 406.348
1438, 406.348
1439, 406.348
1440, 406.348
1441, 406.348
1442, 406.348
1443, 406.348
1444, 406.348
1445, 406.348
1446, 406.348
1447, 406.348
1448, 406.348
1449, 406.348
1450, 406.348
1451, 406.348
1452, 406.348
1453, 406.348
1454, 406.348
1455, 406.348
1456, 406.348
1457, 406.348
1458, 406.348
1459, 406.348
1460, 404.529
1461, 406.348
1462, 408.166
1463, 408.166
1464, 408.166
1465, 408.166
1466, 408.166
1467, 408.166
1468, 408.166
1469, 408.166
1470, 408.166
1471, 408.166
1472, 408.166
1473, 408.166
1474, 408.166
1475, 408.166
1476, 408.166
1477, 408.166
1478, 408.166
1479, 408.166
1480, 408.166
1481, 408.166
1482, 408.166
1483, 408.166
1484, 408.166
1485, 408.166
1486, 408.166
1487, 408.166
1488, 408.166
1489, 408.166
1490, 408.166
1491, 408.166
1492, 408.166
1493, 408.166
1494, 408.166
1495, 408.166
1496, 408.166
1497, 408.166
1498, 408.166
1499, 408.166
1500, 408.166
1501, 408.166
1502, 406.348
1503, 408.166
1504, 409.985
1505, 409.985
1506, 409.985
1507, 409.985
1508, 409.985
1509, 409.985
1510, 409.985
1511, 409.985
1512, 409.985
1513, 409.985
1514, 409.985
1515, 409.985
1516, 409.985
1517, 409.985
1518, 409.985
1519, 409.985
1520, 409.985
1521, 409.985
1522, 409.985
1523, 409.985
1524, 409.985
1525, 409.985
1526, 409.985
1527, 409.985
1528, 409.985
1529, 409.985
1530, 409.985
1531, 409.985
1532, 409.985
1533, 409.985
1534, 409.985
1535, 409.985
1536, 409.985
1537, 409.985
1538, 409.985
1539, 409.985
1540, 409.985
1541, 409.985
1542, 409.985
1543, 409.985
1544, 409.985
1545, 408.166
1546, 409.985
1547, 411.084
1548, 411.084
1549, 411.084
1550, 411.084
1551, 411.084
1552, 411.084
1553, 411.084
1554, 411.084
1555, 411.084
1556, 411.084
1557, 411.084
1558, 411.084
1559, 411.084
1560, 411.084
1561, 411.084
1562, 411.084
1563, 411.084
1564, 411.084
1565, 411.084
1566, 411.084
1567, 411.084
1568, 411.084
1569, 411.084
1570, 411.084
1571, 411.084
1572, 411.084
1573, 411.084
1574, 411.084
1575, 411.084
1576, 411.084
1577, 411.084
1578, 411.084
1579, 411.084
1580, 411.084
1581, 411.084
1582, 411.084
1583, 411.084
1584, 411.084
1585, 411.084
1586, 411.084
1587, 411.084
1588, 411.084
1589, 409.985
1590, 411.084
1591, 411.803
1592, 411.803
1593, 411.803
1594, 411.803
1595, 411.803
1596, 411.803
1597, 411.803
1598, 411.803
1599, 411.803
1600, 411.803
1601, 411.803
1602, 411.803
1603, 411.803
1604, 411.803
1605, 411.803
1606, 411.803
1607, 411.803
1608, 411.803
1609, 411.803
1610, 411.803
1611, 411.803
1612, 411.803
1613, 411.803
1614, 411.803
1615, 411.803
1616, 411.803
1617, 411.803
1618, 411.803
1619, 411.803
1620, 411.803
1621, 411.803
1622, 411.803
1623, 411.803
1624, 411.803
1625, 411.803
1626, 411.803
1627, 411.803
1628, 411.803
1629, 411.803
1630, 411.803
1631, 411.803
1632, 411.803
1633, 411.803
1634, 411.084
1635, 411.803
1636, 413.622
1637, 413.622
1638, 413.622
1639, 413.622
1640, 413.622
1641, 413.622
1642, 413.622
1643, 413.622
1644, 413.622
1645, 413.622
1646, 413.622
1647, 413.622
1648, 413.622
1649, 413.622
1650, 413.622
1651, 413.622
1652, 413.622
1653, 413.622
1654, 413.622
1655, 413.622
1656, 413.622
1657, 413.622
1658, 413.622
1659, 413.622
1660, 413.622
1661, 413.622
1662, 413.622
1663, 413.622
1664, 413.622
1665, 413.622
1666, 413.622
1667, 413.622
1668, 413.622
1669, 413.622
1670, 413.622
1671, 413.622
1672, 413.622
1673, 413.622
1674, 413.622
1675, 413.622
1676, 413.622
1677, 413.622
1678, 413.622
1679, 413.622
1680, 411.803
1681, 413.622
1682, 415.440
1683, 415.440
1684, 415.440
1685, 415.440
1686, 415.440
1687, 415.440
1688, 415.440
1689, 415.440
1690, 415.440
1691, 415.440
1692, 415.440
1693, 415.440
1694, 415.440
1695, 415.440
1696, 415.440
1697, 415.440
1698, 415.440
1699, 415.440
1700, 415.440
1701, 415.440
1702, 415.440
1703, 415.440
1704, 415.440
1705, 415.440
1706, 415.440
1707, 415.440
1708, 415.440
1709, 415.440
1710, 415.440
1711, 415.440
1712, 415.440
1713, 415.440
1714, 415.440
1715, 415.440
1716, 415.440
1717, 415.440
1718, 415.440
1719, 415.440
1720, 415.440
1721, 415.440
1722, 415.440
1723, 415.440
1724, 415.440
1725, 415.440
1726, 415.440
1727, 413.622
1728, 415.440
1729, 417.259
1730, 417.259
1731, 417.259
1732, 417.259
1733, 417.259
1734, 417.259
1735, 417.259
1736, 417.259
1737, 417.259
1738, 417.259
1739, 417.259
1740, 417.259
1741, 417.259
1742, 417.259
1743, 417.259
1744, 417.259
1745, 417.259
1746, 417.259
1747, 417.259
1748, 417.259
1749, 417.259
1750, 417.259
1751, 417.259
1752, 417.259
1753, 417.259
1754, 417.259
1755, 417.259
1756, 417.259
1757, 417.259
1758, 417.259
1759, 417.259
1760, 417.259
1761, 417.259
1762, 417.259
1763, 417.259
1764, 417.259
1765, 417.259
1766, 417.259
1767, 417.259
1768, 417.259
1769, 417.259
1770, 417.259
1771, 417.259
1772, 417.259
1773, 417.259
1774, 417.259
1775, 415.440
1776, 417.259
1777, 419.077
1778, 419.077
1779, 419.077
1780, 419.077
1781, 419.077
1782, 419.077
1783, 419.077
1784, 419.077
1785, 419.077
1786, 419.077
1787, 419.077
1788, 419.077
1789, 419.077
1790, 419.077
1791, 419.077
1792, 419.077
1793, 419.077
1794, 419.077
1795, 419.077
1796, 419.077
1797, 419.077
1798, 419.077
1799, 419.077
1800, 419.077
1801, 419.077
1802, 419.077
1803, 419.077
1804, 419.077
1805, 419.077
1806, 419.077
1807, 419.077
1808, 419.077
1809, 419.077
1810, 419.077
1811, 419.077
1812, 419.077
1813, 419.077
1814, 419.077
1815, 419.077
1816, 419.077
1817, 419.077
1818, 419.077
1819, 419.077
1820, 419.077
1821, 419.077
1822, 419.077
1823, 419.077
1824, 417.259
1825, 419.077
1826, 417.259
1827, 419.077
1828, 420.896
1829, 420.896
1830, 420.896
1831, 420.896
1832, 420.896
1833, 420.896
1834, 420.896
1835, 420.896
1836, 420.896
1837, 420.896
1838, 420.896
1839, 420.896
1840, 420.896
1841, 420.896
1842, 420.896
1843, 420.896
1844, 420.896
1845, 420.896
1846, 420.896
1847, 420.896
1848, 420.896
1849, 420.896
1850, 420.896
1851, 420.896
1852, 420.896
1853, 420.896
1854, 420.896
1855, 420.896
1856, 420.896
1857, 420.896
1858, 420.896
1859, 420.896
1860, 420.896
1861, 420.896
1862, 420.896
1863, 420.896
1864, 420.896
1865, 420.896
1866, 420.896
1867, 420.896
1868, 420.896
1869, 420.896
1870, 420.896
1871, 420.896
1872, 420.896
1873, 420.896
1874, 420.896
1875, 420.896
1876, 420.896
1877, 419.077
1878, 420.896
1879, 419.077
1880, 420.896
1881, 419.077
1882, 420.896
1883, 422.714
1884, 422.714
1885, 422.714
1886, 422.714
1887, 422.714
1888, 422.714
1889, 422.714
1890, 422.714
1891, 422.714
1892, 422.714
1893, 422.714
1894, 422.714
1895, 422.714
1896, 422.714
1897, 422.714
1898, 422.714
1899, 422.714
1900, 422.714
1901, 422.714
1902, 422.714
1903, 422.714
1904, 422.714
1905, 422.714
1906, 422.714
1907, 422.714
1908, 422.714
1909, 422.714
1910, 422.714
1911, 422.714
1912, 422.714
1913, 422.714
1914, 422.714
1915, 422.714
1916, 422.714
1917, 422.714
1918, 422.714
1919, 422.714
1920, 422.714
1921, 422.714
1922, 422.714
1923, 422.714
1924, 422.714
1925, 422.714
1926, 422.714
1927, 422.714
1928, 422.714
1929, 422.714
1930, 422.714
1931, 422.714
1932, 422.714
1933, 422.714
1934, 422.714
1935, 420.896
1936, 422.714
1937, 424.533
1938, 424.533
1939, 424.533
1940, 424.533
1941, 424.533
1942, 424.533
1943, 424.533
1944, 424.533
1945, 424.533
1946, 424.533
1947, 424.533
1948, 424.533
1949, 424.533
1950, 424.533
1951, 424.533
1952, 424.533
1953, 424.533
1954, 424.533
1955, 424.533
1956, 424.533
1957, 424.533
1958, 424.533
1959, 424.533
1960, 424.533
1961, 424.533
1962, 424.533
1963, 424.533
1964, 424.533
1965, 424.533
1966, 424.533
1967, 424.533
1968, 424.533
1969, 424.533
1970, 424.533
1971, 424.533
1972, 424.533
1973, 424.533
1974, 424.533
1975, 424.533
1976, 424.533
1977, 424.533
1978, 424.533
1979, 424.533
1980, 424.533
1981, 424.533
1982, 424.533
1983, 424.533
1984, 424.533
1985, 424.533
1986, 424.533
1987, 424.533
1988, 424.533
1989, 424.533
1990, 422.714
1991, 424.533
1992, 426.351
1993, 426.351
1994, 426.351
1995, 426.351
1996, 426.351
1997, 426.351
1998, 426.351
1999, 426.351
2000, 426.351
2001, 426.351
2002, 426.351
2003, 426.351
2004, 426.351
2005, 426.351
2006, 426.351
2007, 426.351
2008, 426.351
2009, 426.351
2010, 426.351
2011, 426.351
2012, 426.351
2013, 426.351
2014, 426.351
2015, 426.351
2016, 426.351
2017, 426.351
2018, 426.351
2019, 426.351
2020, 426.351
2021, 426.351
2022, 426.351
2023, 426.351
2024, 426.351
2025, 426.351
2026, 426.351
2027, 426.351
2028, 426.351
2029, 426.351
2030, 426.351
2031, 426.351
2032, 426.351
2033, 426.351
2034, 426.351
2035, 426.351
2036, 426.351
2037, 426.351
2038, 426.351
2039, 426.351
2040, 426.351
2041, 426.351
2042, 426.351
2043, 426.351
2044, 426.351
2045, 426.351
2046, 424.533
2047, 426.351
2048, 424.533
2049, 426.351
2050, 424.533
2051, 426.351
2052, 426.535
2053, 426.535
2054, 426.535
2055, 426.535
2056, 426.535
2057, 426.535
2058, 426.535
2059, 426.535
2060, 426.535
2061, 426.535
2062, 426.535
2063, 426.535
2064, 426.535
2065, 426.535
2066, 426.535
2067, 426.535
2068, 426.535
2069, 426.535
2070, 426.535
2071, 426.535
2072, 426.535
2073, 426.535
2074, 426.535
2075, 426.535
2076, 426.535
2077, 426.535
2078, 426.535
2079, 426.535
2080, 426.535
2081, 426.535
2082, 426.535
2083, 426.535
2084, 426.535
2085, 426.535
2086, 426.535
2087, 426.535
2088, 426.535
2089, 426.535
2090, 426.535
2091, 426.535
2092, 426.535
2093, 426.535
2094, 426.535
2095, 426.535
2096, 426.535
2097, 426.535
2098, 426.535
2099, 426.535
2100, 426.535
2101, 426.535
2102, 426.535
2103, 426.535
2104, 426.535
2105, 426.535
2106, 426.535
2107, 426.535
2108, 426.535
2109, 426.351
2110, 426.535
2111, 428.170
2112, 428.170
2113, 428.170
2114, 428.170
2115, 428.170
2116, 428.170
2117, 428.170
2118, 428.170
2119, 428.170
2120, 428.170
2121, 428.170
2122, 428.170
2123, 428.170
2124, 428.170
2125, 428.170
2126, 428.170
2127, 428.170
2128, 428.170
2129, 428.170
2130, 428.170
2131, 428.170
2132, 428.170
2133, 428.170
2134, 428.170
2135, 428.170
2136, 428.170
2137, 428.170
2138, 428.170
2139, 428.170
2140, 428.170
2141, 428.170
2142, 428.170
2143, 428.170
2144, 428.170
2145, 428.170
2146, 428.170
2147, 428.170
2148, 428.170
2149, 428.170
2150, 428.170
2151, 428.170
2152, 428.170
2153, 428.170
2154, 428.170
2155, 428.170
2156, 428.170
2157, 428.170
2158, 428.170
2159, 428.170
2160, 428.170
2161, 428.170
2162, 428.170
2163, 428.170
2164, 428.170
2165, 428.170
2166, 428.170
2167, 428.170
2168, 428.170
2169, 426.535
2170, 428.170
2171, 429.988
2172, 429.988
2173, 429.988
2174, 429.988
2175, 429.988
2176, 429.988
2177, 429.988
2178, 429.988
2179, 429.988
2180, 429.988
2181, 429.988
2182, 429.988
2183, 429.988
2184, 429.988
2185, 429.988
2186, 429.988
2187, 429.988
2188, 429.988
2189, 429.988
2190, 429.988
2191, 429.988
2192, 429.988
2193, 429.988
2194, 429.988
2195, 429.988
2196, 429.988
2197, 429.988
2198, 429.988
2199, 429.988
2200, 429.988
2201, 429.988
2202, 429.988
2203, 429.988
2204, 429.988
2205, 429.988
2206, 429.988
2207, 429.988
2208, 429.988
2209, 429.988
2210, 429.988
2211, 429.988
2212, 429.988
2213, 429.988
2214, 429.988
2215, 429.988
2216, 429.988
2217, 429.988
2218, 429.988
2219, 429.988
2220, 429.988
2221, 429.988
2222, 429.988
2223, 429.988
2224, 429.988
2225, 429.988
2226, 429.988
2227, 429.988
2228, 429.988
2229, 429.988
2230, 428.170
2231, 429.988
2232, 428.170
2233, 429.988
2234, 431.807
2235, 431.807
2236, 431.807
2237, 431.807
2238, 431.807
2239, 431.807
2240, 431.807
2241, 431.807
2242, 431.807
2243, 431.807
2244, 431.807
2245, 431.807
2246, 431.807
2247, 431.807
2248, 431.807
2249, 431.807
2250, 431.807
2251, 431.807
2252, 431.807
2253, 431.807
2254, 431.807
2255, 431.807
2256, 431.807
2257, 431.807
2258, 431.807
2259, 431.807
2260, 431.807
2261, 431.807
2262, 431.807
2263, 431.807
2264, 431.807
2265, 431.807
2266, 431.807
2267, 431.807
2268, 431.807
2269, 431.807
2270, 431.807
2271, 431.807
2272, 431.807
2273, 431.807
2274, 431.807
2275, 431.807
2276, 431.807
2277, 431.807
2278, 431.807
2279, 431.807
2280, 431.807
2281, 431.807
2282, 431.807
2283, 431.807
2284, 431.807
2285, 431.807
2286, 431.807
2287, 431.807
2288, 431.807
2289, 431.807
2290, 431.807
2291, 431.807
2292, 431.807
2293, 431.807
2294, 431.807
2295, 429.988
2296, 431.807
2297, 433.359
2298, 433.359
2299, 433.359
2300, 433.359
2301, 433.359
2302, 433.359
2303, 433.359
2304, 433.359
2305, 433.359
2306, 433.359
2307, 433.359
2308, 433.359
2309, 433.359
2310, 433.359
2311, 433.359
2312, 433.359
2313, 433.359
2314, 433.359
2315, 433.359
2316, 433.359
2317, 433.359
2318, 433.359
2319, 433.359
2320, 433.359
2321, 433.359
2322, 433.359
2323, 433.359
2324, 433.359
2325, 433.359
2326, 433.359
2327, 433.359
2328, 433.359
2329, 433.359
2330, 433.359
2331, 433.359
2332, 433.359
2333, 433.359
2334, 433.359
2335, 433.359
2336, 433.359
2337, 433.359
2338, 433.359
2339, 433.359
2340, 433.359
2341, 433.359
2342, 433.359
2343, 433.359
2344, 433.359
2345, 433.359
2346, 433.359
2347, 433.359
2348, 433.359
2349, 433.359
2350, 433.359
2351, 433.359
2352, 433.359
2353, 433.359
2354, 433.359
2355, 433.359
2356, 433.359
2357, 433.359
2358, 433.359
2359, 431.807
2360, 433.359
2361, 431.807
2362, 433.359
2363, 433.625
2364, 433.625
2365, 433.625
2366, 433.625
2367, 433.625
2368, 433.625
2369, 433.625
2370, 433.625
2371, 433.625
2372, 433.625
2373, 433.625
2374, 433.625
2375, 433.625
2376, 433.625
2377, 433.625
2378, 433.625
2379, 433.625
2380, 433.625
2381, 433.625
2382, 433.625
2383, 433.625
2384, 433.625
2385, 433.625
2386, 433.625
2387, 433.625
2388, 433.625
2389, 433.625
2390, 433.625
2391, 433.625
2392, 433.625
2393, 433.625
2394, 433.625
2395, 433.625
2396, 433.625
2397, 433.625
2398, 433.625
2399, 433.625
2400, 433.625
2401, 433.625
2402, 433.625
2403, 433.625
2404, 433.625
2405, 433.625
2406, 433.625
2407, 433.625
2408, 433.625
2409, 433.625
2410, 433.625
2411, 433.625
2412, 433.625
2413, 433.625
2414, 433.625
2415, 433.625
2416, 433.625
2417, 433.625
2418, 433.625
2419, 433.625
2420, 433.625
2421, 433.625
2422, 433.625
2423, 433.625
2424, 433.625
2425, 433.625
2426, 433.625
2427, 433.359
2428, 433.625
2429, 433.359
2430, 433.625
2431, 435.444
2432, 435.444
2433, 435.444
2434, 435.444
2435, 435.444
2436, 435.444
2437, 435.444
2438, 435.444
2439, 435.444
2440, 435.444
2441, 435.444
2442, 435.444
2443, 435.444
2444, 435.444
2445, 435.444
2446, 435.444
2447, 435.444
2448, 435.444
2449, 435.444
2450, 435.444
2451, 435.444
2452, 435.444
2453, 435.444
2454, 435.444
2455, 435.444
2456, 435.444
2457, 435.444
2458, 435.444
2459, 435.444
2460, 435.444
2461, 435.444
2462, 435.444
2463, 435.444
2464, 435.444
2465, 435.444
2466, 435.444
2467, 435.444
2468, 435.444
2469, 435.444
2470, 435.444
2471, 435.444
2472, 435.444
2473, 435.444
2474, 435.444
2475, 435.444
2476, 435.444
2477, 435.444
2478, 435.444
2479, 435.444
2480, 435.444
2481, 435.444
2482, 435.444
2483, 435.444
2484, 435.444
2485, 435.444
2486, 435.444
2487, 435.444
2488, 435.444
2489, 435.444
2490, 435.444
2491, 435.444
2492, 435.444
2493, 435.444
2494, 435.444
2495, 435.444
2496, 435.444
2497, 433.625
2498, 435.444
2499, 433.625
2500, 435.444
2501, 437.262
2502, 437.262
2503, 437.262
2504, 437.262
2505, 437.262
2506, 437.262
2507, 437.262
2508, 437.262
2509, 437.262
2510, 437.262
2511, 437.262
2512, 437.262
2513, 437.262
2514, 437.262
2515, 437.262
2516, 437.262
2517, 437.262
2518, 437.262
2519, 437.262
2520, 437.262
2521, 437.262
2522, 437.262
2523, 437.262
2524, 437.262
2525, 437.262
2526, 437.262
2527, 437.262
2528, 437.262
2529, 437.262
2530, 437.262
2531, 437.262
2532, 437.262
2533, 437.262
2534, 437.262
2535, 437.262
2536, 437.262
2537, 437.262
2538, 437.262
2539, 437.262
2540, 437.262
2541, 437.262
2542, 437.262
2543, 437.262
2544, 437.262
2545, 437.262
2546, 437.262
2547, 437.262
2548, 437.262
2549, 437.262
2550, 437.262
2551, 437.262
2552, 437.262
2553, 437.262
2554, 437.262
2555, 437.262
2556, 437.262
2557, 437.262
2558, 437.262
2559, 437.262
2560, 437.262
2561, 437.262
2562, 437.262
2563, 437.262
2564, 437.262
2565, 437.262
2566, 437.262
2567, 437.262
2568, 437.262
2569, 435.444
2570, 437.262
2571, 439.080
2572, 439.080
2573, 439.080
2574, 439.080
2575, 439.080
2576, 439.080
2577, 439.080
2578, 439.080
2579, 439.080
2580, 439.080
2581, 439.080
2582, 439.080
2583, 439.080
2584, 439.080
2585, 439.080
2586, 439.080
2587, 439.080
2588, 439.080
2589, 439.080
2590, 439.080
2591, 439.080
2592, 439.080
2593, 439.080
2594, 439.080
2595, 439.080
2596, 439.080
2597, 439.080
2598, 439.080
2599, 439.080
2600, 439.080
2601, 439.080
2602, 439.080
2603, 439.080
2604, 439.080
2605, 439.080
2606, 439.080
2607, 439.080
2608, 439.080
2609, 439.080
2610, 439.080
2611, 439.080
2612, 439.080
2613, 439.080
2614, 439.080
2615, 439.080
2616, 439.080
2617, 439.080
2618, 439.080
2619, 439.080
2620, 439.080
2621, 439.080
2622, 439.080
2623, 439.080
2624, 439.080
2625, 439.080
2626, 439.080
2627, 439.080
2628, 439.080
2629, 439.080
2630, 439.080
2631, 439.080
2632, 439.080
2633, 439.080
2634, 439.080
2635, 439.080
2636, 439.080
2637, 439.080
2638, 439.080
2639, 439.080
2640, 437.262
2641, 439.080
2642, 437.262
2643, 439.080
2644, 439.530
2645, 439.530
2646, 439.530
2647, 439.530
2648, 439.530
2649, 439.530
2650, 439.530
2651, 439.530
2652, 439.530
2653, 439.530
2654, 439.530
2655, 439.530
2656, 439.530
2657, 439.530
2658, 439.530
2659, 439.530
2660, 439.530
2661, 439.530
2662, 439.530
2663, 439.530
2664, 439.530
2665, 439.530
2666, 439.530
2667, 439.530
2668, 439.530
2669, 439.530
2670, 439.530
2671, 439.530
2672, 439.530
2673, 439.530
2674, 439.530
2675, 439.530
2676, 439.530
2677, 439.530
2678, 439.530
2679, 439.530
2680, 439.530
2681, 439.530
2682, 439.530
2683, 439.530
2684, 439.530
2685, 439.530
2686, 439.530
2687, 439.530
2688, 439.530
2689, 439.530
2690, 439.530
2691, 439.530
2692, 439.530
2693, 439.530
2694, 439.530
2695, 439.530
2696, 439.530
2697, 439.530
2698, 439.530
2699, 439.530
2700, 439.530
2701, 439.530
2702, 439.530
2703, 439.530
2704, 439.530
2705, 439.530
2706, 439.530
2707, 439.530
2708, 439.530
2709, 439.530
2710, 439.530
2711, 439.530
2712, 439.530
2713, 439.530
2714, 439.530
2715, 439.080
2716, 439.530
2717, 439.080
2718, 439.530
2719, 440.899
2720, 440.899
2721, 440.899
2722, 440.899
2723, 440.899
2724, 440.899
2725, 440.899
2726, 440.899
2727, 440.899
2728, 440.899
2729, 440.899
2730, 440.899
2731, 440.899
2732, 440.899
2733, 440.899
2734, 440.899
2735, 440.899
2736, 440.899
2737, 440.899
2738, 440.899
2739, 440.899
2740, 440.899
2741, 440.899
2742, 440.899
2743, 440.899
2744, 440.899
2745, 440.899
2746, 440.899
2747, 440.899
2748, 440.899
2749, 440.899
2750, 440.899
2751, 440.899
2752, 440.899
2753, 440.899
2754, 440.899
2755, 440.899
2756, 440.899
2757, 440.899
2758, 440.899
2759, 440.899
2760, 440.899
2761, 440.899
2762, 440.899
2763, 440.899
2764, 440.899
2765, 440.899
2766, 440.899
2767, 440.899
2768, 440.899
2769, 440.899
2770, 440.899
2771, 440.899
2772, 440.899
2773, 440.899
2774, 440.899
2775, 440.899
2776, 440.899
2777, 440.899
2778, 440.899
2779, 440.899
2780, 440.899
2781, 440.899
2782, 440.899
2783, 440.899
2784, 440.899
2785, 440.899
2786, 440.899
2787, 440.899
2788, 440.899
2789, 440.899
2790, 440.899
2791, 440.899
2792, 439.530
2793, 440.899
2794, 439.530
2795, 440.899
2796, 442.717
2797, 442.717
2798, 442.717
2799, 442.717
2800, 442.717
2801, 442.717
2802, 442.717
2803, 442.717
2804, 442.717
2805, 442.717
2806, 442.717
2807, 442.717
2808, 442.717
2809, 442.717
2810, 442.717
2811, 442.717
2812, 442.717
2813, 442.717
2814, 442.717
2815, 442.717
2816, 442.717
2817, 442.717
2818, 442.717
2819, 442.717
2820, 442.717
2821, 442.717
2822, 442.717
2823, 442.717
2824, 442.717
2825, 442.717
2826, 442.717
2827, 442.717
2828, 442.717
2829, 442.717
2830, 442.717
2831, 442.717
2832, 442.717
2833, 442.717
2834, 442.717
2835, 442.717
2836, 442.717
2837, 442.717
2838, 442.717
2839, 442.717
2840, 442.717
2841, 442.717
2842, 442.717
2843, 442.717
2844, 442.717
2845, 442.717
2846, 442.717
2847, 442.717
2848, 442.717
2849, 442.717
2850, 442.717
2851, 442.717
2852, 442.717
2853, 442.717
2854, 442.717
2855, 442.717
2856, 442.717
2857, 442.717
2858, 442.717
2859, 442.717
2860, 442.717
2861, 442.717
2862, 442.717
2863, 442.717
2864, 442.717
2865, 442.717
2866, 442.717
2867, 442.717
2868, 442.717
2869, 442.717
2870, 442.717
2871, 440.899
2872, 442.717
2873, 440.899
2874, 442.717
2875, 440.899
2876, 442.717
2877, 444.536
2878, 444.536
2879, 444.536
2880, 444.536
2881, 444.536
2882, 444.536
2883, 444.536
2884, 444.536
2885, 444.536
2886, 444.536
2887, 444.536
2888, 444.536
2889, 444.536
2890, 444.536
2891, 444.536
2892, 444.536
2893, 444.536
2894, 444.536
2895, 444.536
2896, 444.536
2897, 444.536
2898, 444.536
2899, 444.536
2900, 444.536
2901, 444.536
2902, 444.536
2903, 444.536
2904, 444.536
2905, 444.536
2906, 444.536
2907, 444.536
2908, 444.536
2909, 444.536
2910, 444.536
2911, 444.536
2912, 444.536
2913, 444.536
2914, 444.536
2915, 444.536
2916, 444.536
2917, 444.536
2918, 444.536
2919, 444.536
2920, 444.536
2921, 444.536
2922, 444.536
2923, 444.536
2924, 444.536
2925, 444.536
2926, 444.536
2927, 444.536
2928, 444.536
2929, 444.536
2930, 444.536
2931, 444.536
2932, 444.536
2933, 444.536
2934, 444.536
2935, 444.536
2936, 444.536
2937, 444.536
2938, 444.536
2939, 444.536
2940, 444.536
2941, 444.536
2942, 444.536
2943, 444.536
2944, 444.536
2945, 444.536
2946, 444.536
2947, 444.536
2948, 444.536
2949, 444.536
2950, 444.536
2951, 444.536
2952, 444.536
2953, 444.536
2954, 444.536
2955, 442.717
2956, 444.536
2957, 442.717
2958, 444.536
2959, 445.007
2960, 445.007
2961, 445.007
2962, 445.007
2963, 445.007
2964, 445.007
2965, 445.007
2966, 445.007
2967, 445.007
2968, 445.007
2969, 445.007
2970, 445.007
2971, 445.007
2972, 445.007
2973, 445.007
2974, 445.007
2975, 445.007
2976, 445.007
2977, 445.007
2978, 445.007
2979, 445.007
2980, 445.007
2981, 445.007
2982, 445.007
2983, 445.007
2984, 445.007
2985, 445.007
2986, 445.007
2987, 445.007
2988, 445.007
2989, 445.007
2990, 445.007
2991, 445.007
2992, 445.007
2993, 445.007
2994, 445.007
2995, 445.007
2996, 445.007
2997, 445.007
2998, 445.007
2999, 445.007
3000, 445.007
3001, 445.007
3002, 445.007
3003, 445.007
3004, 445.007
3005, 445.007
3006, 445.007
3007, 445.007
3008, 445.007
3009, 445.007
3010, 445.007
3011, 445.007
3012, 445.007
3013, 445.007
3014, 445.007
3015, 445.007
3016, 445.007
3017, 445.007
3018, 445.007
3019, 445.007
3020, 445.007
3021, 445.007
3022, 445.007
3023, 445.007
3024, 445.007
3025, 445.007
3026, 445.007
3027, 445.007
3028, 445.007
3029, 445.007
3030, 445.007
3031, 445.007
3032, 445.007
3033, 445.007
3034, 445.007
3035, 445.007
3036, 445.007
3037, 445.007
3038, 445.007
3039, 444.536
3040, 445.007
3041, 444.536
3042, 445.007
3043, 446.354
3044, 446.354
3045, 446.354
3046, 446.354
3047, 446.354
3048, 446.354
3049, 446.354
3050, 446.354
3051, 446.354
3052, 446.354
3053, 446.354
3054, 446.354
3055, 446.354
3056, 446.354
3057, 446.354
3058, 446.354
3059, 446.354
3060, 446.354
3061, 446.354
3062, 446.354
3063, 446.354
3064, 446.354
3065, 446.354
3066, 446.354
3067, 446.354
3068, 446.354
3069, 446.354
3070, 446.354
3071, 446.354
3072, 446.354
3073, 446.354
3074, 446.354
3075, 446.354
3076, 446.354
3077, 446.354
3078, 446.354
3079, 446.354
3080, 446.354
3081, 446.354
3082, 446.354
3083, 446.354
3084, 446.354
3085, 446.354
3086, 446.354
3087, 446.354
3088, 446.354
3089, 446.354
3090, 446.354
3091, 446.354
3092, 446.354
3093, 446.354
3094, 446.354
3095, 446.354
3096, 446.354
3097, 446.354
3098, 446.354
3099, 446.354
3100, 446.354
3101, 446.354
3102, 446.354
3103, 446.354
3104, 446.354
3105, 446.354
3106, 446.354
3107, 446.354
3108, 446.354
3109, 446.354
3110, 446.354
3111, 446.354
3112, 446.354
3113, 446.354
3114, 446.354
3115, 446.354
3116, 446.354
3117, 446.354
3118, 446.354
3119, 446.354
3120, 446.354
3121, 446.354
3122, 446.354
3123, 446.354
3124, 446.354
3125, 445.007
3126, 446.354
3127, 445.007
3128, 446.354
3129, 448.173
3130, 448.173
3131, 448.173
3132, 448.173
3133, 448.173
3134, 448.173
3135, 448.173
3136, 448.173
3137, 448.173
3138, 448.173
3139, 448.173
3140, 448.173
3141, 448.173
3142, 448.173
3143, 448.173
3144, 448.173
3145, 448.173
3146, 448.173
3147, 448.173
3148, 448.173
3149, 448.173
3150, 448.173
3151, 448.173
3152, 448.173
3153, 448.173
3154, 448.173
3155, 448.173
3156, 448.173
3157, 448.173
3158, 448.173
3159, 448.173
3160, 448.173
3161, 448.173
3162, 448.173
3163, 448.173
3164, 448.173
3165, 448.173
3166, 448.173
3167, 448.173
3168, 448.173
3169, 448.173
3170, 448.173
3171, 448.173
3172, 448.173
3173, 448.173
3174, 448.173
3175, 448.173
3176, 448.173
3177, 448.173
3178, 448.173
3179, 448.173
3180, 448.173
3181, 448.173
3182, 448.173
3183, 448.173
3184, 448.173
3185, 448.173
3186, 448.173
3187, 448.173
3188, 448.173
3189, 448.173
3190, 448.173
3191, 448.173
3192, 448.173
3193, 448.173
3194, 448.173
3195, 448.173
3196, 448.173
3197, 448.173
3198, 448.173
3199, 448.173
3200, 448.173
3201, 448.173
3202, 448.173
3203, 448.173
3204, 448.173
3205, 448.173
3206, 448.173
3207, 448.173
3208, 448.173
3209, 448.173
3210, 448.173
3211, 448.173
3212, 448.173
3213, 446.354
3214, 448.173
3215, 446.354
3216, 448.173
3217, 446.354
3218, 448.173
3219, 446.354
3220, 448.173
3221, 449.750
3222, 449.750
3223, 449.750
3224, 449.750
3225, 449.750
3226, 449.750
3227, 449.750
3228, 449.750
3229, 449.750
3230, 449.750
3231, 449.750
3232, 449.750
3233, 449.750
3234, 449.750
3235, 449.750
3236, 449.750
3237, 449.750
3238, 449.750
3239, 449.750
3240, 449.750
3241, 449.750
3242, 449.750
3243, 449.750
3244, 449.750
3245, 449.750
3246, 449.750
3247, 449.750
3248, 449.750
3249, 449.750
3250, 449.750
3251, 449.750
3252, 449.750
3253, 449.750
3254, 449.750
3255, 449.750
3256, 449.750
3257, 449.750
3258, 449.750
3259, 449.750
3260, 449.750
3261, 449.750
3262, 449.750
3263, 449.750
3264, 449.750
3265, 449.750
3266, 449.750
3267, 449.750
3268, 449.750
3269, 449.750
3270, 449.750
3271, 449.750
3272, 449.750
3273, 449.750
3274, 449.750
3275, 449.750
3276, 449.750
3277, 449.750
3278, 449.750
3279, 449.750
3280, 449.750
3281, 449.750
3282, 449.750
3283, 449.750
3284, 449.750
3285, 449.750
3286, 449.750
3287, 449.750
3288, 449.750
3289, 449.750
3290, 449.750
3291, 449.750
3292, 449.750
3293, 449.750
3294, 449.750
3295, 449.750
3296, 449.750
3297, 449.750
3298, 449.750
3299, 449.750
3300, 449.750
3301, 449.750
3302, 449.750
3303, 449.750
3304, 449.750
3305, 449.750
3306, 449.750
3307, 449.750
3308, 449.750
3309, 448.173
3310, 449.750
3311, 448.173
3312, 449.750
3313, 449.991
3314, 449.991
3315, 449.991
3316, 449.991
3317, 449.991
3318, 449.991
3319, 449.991
3320, 449.991
3321, 449.991
3322, 449.991
3323, 449.991
3324, 449.991
3325, 449.991
3326, 449.991
3327, 449.991
3328, 449.991
3329, 449.991
3330, 449.991
3331, 449.991
3332, 449.991
3333, 449.991
3334, 449.991
3335, 449.991
3336, 449.991
3337, 449.991
3338, 449.991
3339, 449.991
3340, 449.991
3341, 449.991
3342, 449.991
3343, 449.991
3344, 449.991
3345, 449.991
3346, 449.991
3347, 449.991
3348, 449.991
3349, 449.991
3350, 449.991
3351, 449.991
3352, 449.991
3353, 449.991
3354, 449.991
3355, 449.991
3356, 449.991
3357, 449.991
3358, 449.991
3359, 449.991
3360, 449.991
3361, 449.991
3362, 449.991
3363, 449.991
3364, 449.991
3365, 449.991
3366, 449.991
3367, 449.991
3368, 449.991
3369, 449.991
3370, 449.991
3371, 449.991
3372, 449.991
3373, 449.991
3374, 449.991
3375, 449.991
3376, 449.991
3377, 449.991
3378, 449.991
3379, 449.991
3380, 449.991
3381, 449.991
3382, 449.991
3383, 449.991
3384, 449.991
3385, 449.991
3386, 449.991
3387, 449.991
3388, 449.991
3389, 449.991
3390, 449.991
3391, 449.991
3392, 449.991
3393, 449.991
3394, 449.991
3395, 449.991
3396, 449.991
3397, 449.991
3398, 449.991
3399, 449.991
3400, 449.991
3401, 449.991
3402, 449.991
3403, 449.750
3404, 449.991
3405, 449.750
3406, 449.991
3407, 449.750
3408, 449.991
3409, 451.810
3410, 451.810
3411, 451.810
3412, 451.810
3413, 451.810
3414, 451.810
3415, 451.810
3416, 451.810
3417, 451.810
3418, 451.810
3419, 451.810
3420, 451.810
3421, 451.810
3422, 451.810
3423, 451.810
3424, 451.810
3425, 451.810
3426, 451.810
3427, 451.810
3428, 451.810
3429, 451.810
3430, 451.810
3431, 451.810
3432, 451.810
3433, 451.810
3434, 451.810
3435, 451.810
3436, 451.810
3437, 451.810
3438, 451.810
3439, 451.810
3440, 451.810
3441, 451.810
3442, 451.810
3443, 451.810
3444, 451.810
3445, 451.810
3446, 451.810
3447, 451.810
3448, 451.810
3449, 451.810
3450, 451.810
3451, 451.810
3452, 451.810
3453, 451.810
3454, 451.810
3455, 451.810
3456, 451.810
3457, 451.810
3458, 451.810
3459, 451.810
3460, 451.810
3461, 451.810
3462, 451.810
3463, 451.810
3464, 451.810
3465, 451.810
3466, 451.810
3467, 451.810
3468, 451.810
3469, 451.810
3470, 451.810
3471, 451.810
3472, 451.810
3473, 451.810
3474, 451.810
3475, 451.810
3476, 451.810
3477, 451.810
3478, 451.810
3479, 451.810
3480, 451.810
3481, 451.810
3482, 451.810
3483, 451.810
3484, 451.810
3485, 451.810
3486, 451.810
3487, 451.810
3488, 451.810
3489, 451.810
3490, 451.810
3491, 451.810
3492, 451.810
3493, 451.810
3494, 451.810
3495, 451.810
3496, 451.810
3497, 451.810
3498, 451.810
3499, 451.810
3500, 451.810
3501, 451.810
3502, 449.991
3503, 451.810
3504, 449.991
3505, 451.810
3506, 453.628
3507, 453.628
3508, 453.628
3509, 453.628
3510, 453.628
3511, 453.628
3512, 453.628
3513, 453.628
3514, 453.628
3515, 453.628
3516, 453.628
3517, 453.628
3518, 453.628
3519, 453.628
3520, 453.628
3521, 453.628
3522, 453.628
3523, 453.628
3524, 453.628
3525, 453.628
3526, 453.628
3527, 453.628
3528, 453.628
3529, 453.628
3530, 453.628
3531, 453.628
3532, 453.628
3533, 453.628
3534, 453.628
3535, 453.628
3536, 453.628
3537, 453.628
3538, 453.628
3539, 453.628
3540, 453.628
3541, 453.628
3542, 453.628
3543, 453.628
3544, 453.628
3545, 453.628
3546, 453.628
3547, 453.628
3548, 453.628
3549, 453.628
3550, 453.628
3551, 453.628
3552, 453.628
3553, 453.628
3554, 453.628
3555, 453.628
3556, 453.628
3557, 453.628
3558, 453.628
3559, 453.628
3560, 453.628
3561, 453.628
3562, 453.628
3563, 453.628
3564, 453.628
3565, 453.628
3566, 453.628
3567, 453.628
3568, 453.628
3569, 453.628
3570, 453.628
3571, 453.628
3572, 453.628
3573, 453.628
3574, 453.628
3575, 453.628
3576, 453.628
3577, 453.628
3578, 453.628
3579, 453.628
3580, 453.628
3581, 453.628
3582, 453.628
3583, 453.628
3584, 453.628
3585, 453.628
3586, 453.628
3587, 453.628
3588, 453.628
3589, 453.628
3590, 453.628
3591, 453.628
3592, 453.628
3593, 453.628
3594, 453.628
3595, 453.628
3596, 453.628
3597, 453.628
3598, 453.628
3599, 453.628
3600, 453.628
3601, 451.810
3602, 453.628
3603, 451.810
3604, 453.628
3605, 451.810
3606, 453.628
3607, 451.810
3608, 453.628
3609, 451.810
3610, 453.628
3611, 453.720
3612, 453.720
3613, 453.720
3614, 453.720
3615, 453.720
3616, 453.720
3617, 453.720
3618, 453.720
3619, 453.720
3620, 453.720
3621, 453.720
3622, 453.720
3623, 453.720
3624, 453.720
3625, 453.720
3626, 453.720
3627, 453.720
3628, 453.720
3629, 453.720
3630, 453.720
3631, 453.720
3632, 453.720
3633, 453.720
3634, 453.720
3635, 453.720
3636, 453.720
3637, 453.720
3638, 453.720
3639, 453.720
3640, 453.720
3641, 453.720
3642, 453.720
3643, 453.720
3644, 453.720
3645, 453.720
3646, 453.720
3647, 453.720
3648, 453.720
3649, 453.720
3650, 453.720
3651, 453.720
3652, 453.720
3653, 453.720
3654, 453.720
3655, 453.720
3656, 453.720
3657, 453.720
3658, 453.720
3659, 453.720
3660, 453.720
3661, 453.720
3662, 453.720
3663, 453.720
3664, 453.720
3665, 453.720
3666, 453.720
3667, 453.720
3668, 453.720
3669, 453.720
3670, 453.720
3671, 453.720
3672, 453.720
3673, 453.720
3674, 453.720
3675, 453.720
3676, 453.720
3677, 453.720
3678, 453.720
3679, 453.720
3680, 453.720
3681, 453.720
3682, 453.720
3683, 453.720
3684, 453.720
3685, 453.720
3686, 453.720
3687, 453.720
3688, 453.720
3689, 453.720
3690, 453.720
3691, 453.720
3692, 453.720
3693, 453.720
3694, 453.720
3695, 453.720
3696, 453.720
3697, 453.720
3698, 453.720
3699, 453.720
3700, 453.720
3701, 453.720
3702, 453.720
3703, 453.720
3704, 453.720
3705, 453.720
3706, 453.720
3707, 453.720
3708, 453.720
3709, 453.720
3710, 453.720
3711, 453.628
3712, 453.720
3713, 453.628
3714, 453.720
3715, 455.447
3716, 455.447
3717, 455.447
3718, 455.447
3719, 455.447
3720, 455.447
3721, 455.447
3722, 455.447
3723, 455.447
3724, 455.447
3725, 455.447
3726, 455.447
3727, 455.447
3728, 455.447
3729, 455.447
3730, 455.447
3731, 455.447
3732, 455.447
3733, 455.447
3734, 455.447
3735, 455.447
3736, 455.447
3737, 455.447
3738, 455.447
3739, 455.447
3740, 455.447
3741, 455.447
3742, 455.447
3743, 455.447
3744, 455.447
3745, 455.447
3746, 455.447
3747, 455.447
3748, 455.447
3749, 455.447
3750, 455.447
3751, 455.447
3752, 455.447
3753, 455.447
3754, 455.447
3755, 455.447
3756, 455.447
3757, 455.447
3758, 455.447
3759, 455.447
3760, 455.447
3761, 455.447
3762, 455.447
3763, 455.447
3764, 455.447
3765, 455.447
3766, 455.447
3767, 455.447
3768, 455.447
3769, 455.447
3770, 455.447
3771, 455.447
3772, 455.447
3773, 455.447
3774, 455.447
3775, 455.447
3776, 455.447
3777, 455.447
3778, 455.447
3779, 455.447
3780, 455.447
3781, 455.447
3782, 455.447
3783, 455.447
3784, 455.447
3785, 455.447
3786, 455.447
3787, 455.447
3788, 455.447
3789, 455.447
3790, 455.447
3791, 455.447
3792, 455.447
3793, 455.447
3794, 455.447
3795, 455.447
3796, 455.447
3797, 455.447
3798, 455.447
3799, 455.447
3800, 455.447
3801, 455.447
3802, 455.447
3803, 455.447
3804, 455.447
3805, 455.447
3806, 455.447
3807, 455.447
3808, 455.447
3809, 455.447
3810, 455.447
3811, 455.447
3812, 455.447
3813, 455.447
3814, 455.447
3815, 455.447
3816, 455.447
3817, 453.720
3818, 455.447
3819, 453.720
3820, 455.447
3821, 453.720
3822, 455.447
3823, 456.877
3824, 456.877
3825, 456.877
3826, 456.877
3827, 456.877
3828, 456.877
3829, 456.877
3830, 456.877
3831, 456.877
3832, 456.877
3833, 456.877
3834, 456.877
3835, 456.877
3836, 456.877
3837, 456.877
3838, 456.877
3839, 456.877
3840, 456.877
3841, 456.877
3842, 456.877
3843, 456.877
3844, 456.877
3845, 456.877
3846, 456.877
3847, 456.877
3848, 456.877
3849, 456.877
3850, 456.877
3851, 456.877
3852, 456.877
3853, 456.877
3854, 456.877
3855, 456.877
3856, 456.877
3857, 456.877
3858, 456.877
3859, 456.877
3860, 456.877
3861, 456.877
3862, 456.877
3863, 456.877
3864, 456.877
3865, 456.877
3866, 456.877
3867, 456.877
3868, 456.877
3869, 456.877
3870, 456.877
3871, 456.877
3872, 456.877
3873, 456.877
3874, 456.877
3875, 456.877
3876, 456.877
3877, 456.877
3878, 456.877
3879, 456.877
3880, 456.877
3881, 456.877
3882, 456.877
3883, 456.877
3884, 456.877
3885, 456.877
3886, 456.877
3887, 456.877
3888, 456.877
3889, 456.877
3890, 456.877
3891, 456.877
3892, 456.877
3893, 456.877
3894, 456.877
3895, 456.877
3896, 456.877
3897, 456.877
3898, 456.877
3899, 456.877
3900, 456.877
3901, 456.877
3902, 456.877
3903, 456.877
3904, 456.877
3905, 456.877
3906, 456.877
3907, 456.877
3908, 456.877
3909, 456.877
3910, 456.877
3911, 456.877
3912, 456.877
3913, 456.877
3914, 456.877
3915, 456.877
3916, 456.877
3917, 456.877
3918, 456.877
3919, 456.877
3920, 456.877
3921, 456.877
3922, 456.877
3923, 456.877
3924, 456.877
3925, 456.877
3926, 456.877
3927, 456.877
3928, 455.447
3929, 456.877
3930, 455.447
3931, 456.877
3932, 455.447
3933, 456.877
3934, 455.447
3935, 456.877
3936, 457.265
3937, 457.265
3938, 457.265
3939, 457.265
3940, 457.265
3941, 457.265
3942, 457.265
3943, 457.265
3944, 457.265
3945, 457.265
3946, 457.265
3947, 457.265
3948, 457.265
3949, 457.265
3950, 457.265
3951, 457.265
3952, 457.265
3953, 457.265
3954, 457.265
3955, 457.265
3956, 457.265
3957, 457.265
3958, 457.265
3959, 457.265
3960, 457.265
3961, 457.265
3962, 457.265
3963, 457.265
3964, 457.265
3965, 457.265
3966, 457.265
3967, 457.265
3968, 457.265
3969, 457.265
3970, 457.265
3971, 457.265
3972, 457.265
3973, 457.265
3974, 457.265
3975, 457.265
3976, 457.265
3977, 457.265
3978, 457.265
3979, 457.265
3980, 457.265
3981, 457.265
3982, 457.265
3983, 457.265
3984, 457.265
3985, 457.265
3986, 457.265
3987, 457.265
3988, 457.265
3989, 457.265
3990, 457.265
3991, 457.265
3992, 457.265
3993, 457.265
3994, 457.265
3995, 457.265
3996, 457.265
3997, 457.265
3998, 457.265
3999, 457.265
4000, 457.265
4001, 457.265
4002, 457.265
4003, 457.265
4004, 457.265
4005, 457.265
4006, 457.265
4007, 457.265
4008, 457.265
4009, 457.265
4010, 457.265
4011, 457.265
4012, 457.265
4013, 457.265
4014, 457.265
4015, 457.265
4016, 457.265
4017, 457.265
4018, 457.265
4019, 457.265
4020, 457.265
4021, 457.265
4022, 457.265
4023, 457.265
4024, 457.265
4025, 457.265
4026, 457.265
4027, 457.265
4028, 457.265
4029, 457.265
4030, 457.265
4031, 457.265
4032, 457.265
4033, 457.265
4034, 457.265
4035, 457.265
4036, 457.265
4037, 457.265
4038, 457.265
4039, 457.265
4040, 457.265
4041, 457.265
4042, 457.265
4043, 457.265
4044, 457.265
4045, 456.877
4046, 457.265
4047, 456.877
4048, 457.265
4049, 456.877
4050, 457.265
4051, 456.877
4052, 457.265
4053, 456.877
4054, 457.265
4055, 459.084
4056, 459.084
4057, 459.084
4058, 459.084
4059, 459.084
4060, 459.084
4061, 459.084
4062, 459.084
4063, 459.084
4064, 459.084
4065, 459.084
4066, 459.084
4067, 459.084
4068, 459.084
4069, 459.084
4070, 459.084
4071, 459.084
4072, 459.084
4073, 459.084
4074, 459.084
4075, 459.084
4076, 459.084
4077, 459.084
4078, 459.084
4079, 459.084
4080, 459.084
4081, 459.084
4082, 459.084
4083, 459.084
4084, 459.084
4085, 459.084
4086, 459.084
4087, 459.084
4088, 459.084
4089, 459.084
4090, 459.084
4091, 459.084
4092, 459.084
4093, 459.084
4094, 459.084
4095, 459.084
4096, 459.084
4097, 459.084
4098, 459.084
4099, 459.084
4100, 459.084
4101, 459.084
4102, 459.084
4103, 459.084
4104, 459.084
4105, 459.084
4106, 459.084
4107, 459.084
4108, 459.084
4109, 459.084
4110, 459.084
4111, 459.084
4112, 459.084
4113, 459.084
4114, 459.084
4115, 459.084
4116, 459.084
4117, 459.084
4118, 459.084
4119, 459.084
4120, 459.084
4121, 459.084
4122, 459.084
4123, 459.084
4124, 459.084
4125, 459.084
4126, 459.084
4127, 459.084
4128, 459.084
4129, 459.084
4130, 459.084
4131, 459.084
4132, 459.084
4133, 459.084
4134, 459.084
4135, 459.084
4136, 459.084
4137, 459.084
4138, 459.084
4139, 459.084
4140, 459.084
4141, 459.084
4142, 459.084
4143, 459.084
4144, 459.084
4145, 459.084
4146, 459.084
4147, 459.084
4148, 459.084
4149, 459.084
4150, 459.084
4151, 459.084
4152, 459.084
4153, 459.084
4154, 459.084
4155, 459.084
4156, 459.084
4157, 459.084
4158, 459.084
4159, 459.084
4160, 459.084
4161, 459.084
4162, 459.084
4163, 459.084
4164, 459.084
4165, 459.084
4166, 459.084
4167, 459.084
4168, 459.084
4169, 457.265
4170, 459.084
4171, 457.265
4172, 459.084
4173, 457.265
4174, 459.084
4175, 457.265
4176, 459.084
4177, 459.182
4178, 459.182
4179, 459.182
4180, 459.182
4181, 459.182
4182, 459.182
4183, 459.182
4184, 459.182
4185, 459.182
4186, 459.182
4187, 459.182
4188, 459.182
4189, 459.182
4190, 459.182
4191, 459.182
4192, 459.182
4193, 459.182
4194, 459.182
4195, 459.182
4196, 459.182
4197, 459.182
4198, 459.182
4199, 459.182
4200, 459.182
4201, 459.182
4202, 459.182
4203, 459.182
4204, 459.182
4205, 459.182
4206, 459.182
4207, 459.182
4208, 459.182
4209, 459.182
4210, 459.182
4211, 459.182
4212, 459.182
4213, 459.182
4214, 459.182
4215, 459.182
4216, 459.182
4217, 459.182
4218, 459.182
4219, 459.182
4220, 459.182
4221, 459.182
4222, 459.182
4223, 459.182
4224, 459.182
4225, 459.182
4226, 459.182
4227, 459.182
4228, 459.182
4229, 459.182
4230, 459.182
4231, 459.182
4232, 459.182
4233, 459.182
4234, 459.182
4235, 459.182
4236, 459.182
4237, 459.182
4238, 459.182
4239, 459.182
4240, 459.182
4241, 459.182
4242, 459.182
4243, 459.182
4244, 459.182
4245, 459.182
4246, 459.182
4247, 459.182
4248, 459.182
4249, 459.182
4250, 459.182
4251, 459.182
4252, 459.182
4253, 459.182
4254, 459.182
4255, 459.182
4256, 459.182
4257, 459.182
4258, 459.182
4259, 459.182
4260, 459.182
4261, 459.182
4262, 459.182
4263, 459.182
4264, 459.182
4265, 459.182
4266, 459.182
4267, 459.182
4268, 459.182
4269, 459.182
4270, 459.182
4271, 459.182
4272, 459.182
4273, 459.182
4274, 459.182
4275, 459.182
4276, 459.182
4277, 459.182
4278, 459.182
4279, 459.182
4280, 459.182
4281, 459.182
4282, 459.182
4283, 459.182
4284, 459.182
4285, 459.182
4286, 459.182
4287, 459.182
4288, 459.182
4289, 459.182
4290, 459.182
4291, 459.182
4292, 459.182
4293, 459.182
4294, 459.182
4295, 459.084
4296, 459.182
4297, 459.084
4298, 459.182
4299, 459.084
4300, 459.182
4301, 459.084
4302, 459.182
4303, 459.084
4304, 459.182
4305, 460.594
4306, 460.594
4307, 460.594
4308, 460.594
4309, 460.594
4310, 460.594
4311, 460.594
4312, 460.594
4313, 460.594
4314, 460.594
4315, 460.594
4316, 460.594
4317, 460.594
4318, 460.594
4319, 460.594
4320, 460.594
4321, 460.594
4322, 460.594
4323, 460.594
4324, 460.594
4325, 460.594
4326, 460.594
4327, 460.594
4328, 460.594
4329, 460.594
4330, 460.594
4331, 460.594
4332, 460.594
4333, 460.594
4334, 460.594
4335, 460.594
4336, 460.594
4337, 460.594
4338, 460.594
4339, 460.594
4340, 460.594
4341, 460.594
4342, 460.594
4343, 460.594
4344, 460.594
4345, 460.594
4346, 460.594
4347, 460.594
4348, 460.594
4349, 460.594
4350, 460.594
4351, 460.594
4352, 460.594
4353, 460.594
4354, 460.594
4355, 460.594
4356, 460.594
4357, 460.594
4358, 460.594
4359, 460.594
4360, 460.594
4361, 460.594
4362, 460.594
4363, 460.594
4364, 460.594
4365, 460.594
4366, 460.594
4367, 460.594
4368, 460.594
4369, 460.594
4370, 460.594
4371, 460.594
4372, 460.594
4373, 460.594
4374, 460.594
4375, 460.594
4376, 460.594
4377, 460.594
4378, 460.594
4379, 460.594
4380, 460.594
4381, 460.594
4382, 460.594
4383, 460.594
4384, 460.594
4385, 460.594
4386, 460.594
4387, 460.594
4388, 460.594
4389, 460.594
4390, 460.594
4391, 460.594
4392, 460.594
4393, 460.594
4394, 460.594
4395, 460.594
4396, 460.594
4397, 460.594
4398, 460.594
4399, 460.594
4400, 460.594
4401, 460.594
4402, 460.594
4403, 460.594
4404, 460.594
4405, 460.594
4406, 460.594
4407, 460.594
4408, 460.594
4409, 460.594
4410, 460.594
4411, 460.594
4412, 460.594
4413, 460.594
4414, 460.594
4415, 460.594
4416, 460.594
4417, 460.594
4418, 460.594
4419, 460.594
4420, 460.594
4421, 460.594
4422, 460.594
4423, 460.594
4424, 460.594
4425, 460.594
4426, 460.594
4427, 460.594
4428, 459.182
4429, 460.594
4430, 459.182
4431, 460.594
4432, 459.182
4433, 460.594
4434, 459.182
4435, 460.594
4436, 459.182
4437, 460.594
4438, 459.182
4439, 460.594
4440, 460.902
4441, 460.902
4442, 460.902
4443, 460.902
4444, 460.902
4445, 460.902
4446, 460.902
4447, 460.902
4448, 460.902
4449, 460.902
4450, 460.902
4451, 460.902
4452, 460.902
4453, 460.902
4454, 460.902
4455, 460.902
4456, 460.902
4457, 460.902
4458, 460.902
4459, 460.902
4460, 460.902
4461, 460.902
4462, 460.902
4463, 460.902
4464, 460.902
4465, 460.902
4466, 460.902
4467, 460.902
4468, 460.902
4469, 460.902
4470, 460.902
4471, 460.902
4472, 460.902
4473, 460.902
4474, 460.902
4475, 460.902
4476, 460.902
4477, 460.902
4478, 460.902
4479, 460.902
4480, 460.902
4481, 460.902
4482, 460.902
4483, 460.902
4484, 460.902
4485, 460.902
4486, 460.902
4487, 460.902
4488, 460.902
4489, 460.902
4490, 460.902
4491, 460.902
4492, 460.902
4493, 460.902
4494, 460.902
4495, 460.902
4496, 460.902
4497, 460.902
4498, 460.902
4499, 460.902
4500, 460.902
4501, 460.902
4502, 460.902
4503, 460.902
4504, 460.902
4505, 460.902
4506, 460.902
4507, 460.902
4508, 460.902
4509, 460.902
4510, 460.902
4511, 460.902
4512, 460.902
4513, 460.902
4514, 460.902
4515, 460.902
4516, 460.902
4517, 460.902
4518, 460.902
4519, 460.902
4520, 460.902
4521, 460.902
4522, 460.902
4523, 460.902
4524, 460.902
4525, 460.902
4526, 460.902
4527, 460.902
4528, 460.902
4529, 460.902
4530, 460.902
4531, 460.902
4532, 460.902
4533, 460.902
4534, 460.902
4535, 460.902
4536, 460.902
4537, 460.902
4538, 460.902
4539, 460.902
4540, 460.902
4541, 460.902
4542, 460.902
4543, 460.902
4544, 460.902
4545, 460.902
4546, 460.902
4547, 460.902
4548, 460.902
4549, 460.902
4550, 460.902
4551, 460.902
4552, 460.902
4553, 460.902
4554, 460.902
4555, 460.902
4556, 460.902
4557, 460.902
4558, 460.902
4559, 460.902
4560, 460.902
4561, 460.902
4562, 460.902
4563, 460.902
4564, 460.902
4565, 460.902
4566, 460.902
4567, 460.902
4568, 460.902
4569, 460.594
4570, 460.902
4571, 460.594
4572, 460.902
4573, 460.594
4574, 460.902
4575, 460.594
4576, 460.902
4577, 460.594
4578, 460.902
4579, 460.594
4580, 460.902
4581, 460.594
4582, 460.902
4583, 460.594
4584, 460.902
4585, 460.594
4586, 460.902
4587, 461.073
4588, 461.073
4589, 461.073
4590, 461.073
4591, 461.073
4592, 461.073
4593, 461.073
4594, 461.073
4595, 461.073
4596, 461.073
4597, 461.073
4598, 461.073
4599, 461.073
4600, 461.073
4601, 461.073
4602, 461.073
4603, 461.073
4604, 461.073
4605, 461.073
4606, 461.073
4607, 461.073
4608, 461.073
4609, 461.073
4610, 461.073
4611, 461.073
4612, 461.073
4613, 461.073
4614, 461.073
4615, 461.073
4616, 461.073
4617, 461.073
4618, 461.073
4619, 461.073
4620, 461.073
4621, 461.073
4622, 461.073
4623, 461.073
4624, 461.073
4625, 461.073
4626, 461.073
4627, 461.073
4628, 461.073
4629, 461.073
4630, 461.073
4631, 461.073
4632, 461.073
4633, 461.073
4634, 461.073
4635, 461.073
4636, 461.073
4637, 461.073
4638, 461.073
4639, 461.073
4640, 461.073
4641, 461.073
4642, 461.073
4643, 461.073
4644, 461.073
4645, 461.073
4646, 461.073
4647, 461.073
4648, 461.073
4649, 461.073
4650, 461.073
4651, 461.073
4652, 461.073
4653, 461.073
4654, 461.073
4655, 461.073
4656, 461.073
4657, 461.073
4658, 461.073
4659, 461.073
4660, 461.073
4661, 461.073
4662, 461.073
4663, 461.073
4664, 461.073
4665, 461.073
4666, 461.073
4667, 461.073
4668, 461.073
4669, 461.073
4670, 461.073
4671, 461.073
4672, 461.073
4673, 461.073
4674, 461.073
4675, 461.073
4676, 461.073
4677, 461.073
4678, 461.073
4679, 461.073
4680, 461.073
4681, 461.073
4682, 461.073
4683, 461.073
4684, 461.073
4685, 461.073
4686, 461.073
4687, 461.073
4688, 461.073
4689, 461.073
4690, 461.073
4691, 461.073
4692, 461.073
4693, 461.073
4694, 461.073
4695, 461.073
4696, 461.073
4697, 461.073
4698, 461.073
4699, 461.073
4700, 461.073
4701, 461.073
4702, 461.073
4703, 461.073
4704, 461.073
4705, 461.073
4706, 461.073
4707, 461.073
4708, 461.073
4709, 461.073
4710, 461.073
4711, 461.073
4712, 461.073
4713, 461.073
4714, 461.073
4715, 461.073
4716, 461.073
4717, 461.073
4718, 461.073
4719, 461.073
4720, 461.073
4721, 461.073
4722, 461.073
4723, 461.073
4724, 461.073
4725, 460.902
4726, 461.073
4727, 460.902
4728, 461.073
4729, 460.902
4730, 461.073
4731, 460.902
4732, 461.073
4733, 460.902
4734, 461.073
4735, 460.902
4736, 461.073
4737, 461.073
4738, 461.073
4739, 461.073
4740, 461.073
4741, 461.073
4742, 461.073
4743, 461.073
4744, 461.073
4745, 461.073
4746, 461.073
4747, 461.073
4748, 461.073
4749, 461.073
4750, 461.073
4751, 461.073
4752, 461.073
4753, 461.073
4754, 461.073
4755, 461.073
4756, 461.073
4757, 461.073
4758, 461.073
4759, 461.073
4760, 461.073
4761, 461.073
4762, 461.073
4763, 461.073
4764, 461.073
4765, 461.073
4766, 461.073
4767, 461.073
4768, 461.073
4769, 461.073
4770, 461.073
4771, 461.073
4772, 461.073
4773, 461.073
4774, 461.073
4775, 461.073
4776, 461.073
4777, 461.073
4778, 461.073
4779, 461.073
4780, 461.073
4781, 461.073
4782, 461.073
4783, 461.073
4784, 461.073
4785, 461.073
4786, 461.073
4787, 461.073
4788, 461.073
4789, 461.073
4790, 461.073
4791, 461.073
4792, 461.073
4793, 461.073
4794, 461.073
4795, 461.073
4796, 461.073
4797, 461.073
4798, 461.073
4799, 461.073
4800, 461.073
4801, 461.073
4802, 461.073
4803, 461.073
4804, 461.073
4805, 461.073
4806, 461.073
4807, 461.073
4808, 461.073
4809, 461.073
4810, 461.073
4811, 461.073
4812, 461.073
4813, 461.073
4814, 461.073
4815, 461.073
4816, 461.073
4817, 461.073
4818, 461.073
4819, 461.073
4820, 461.073
4821, 461.073
4822, 461.073
4823, 461.073
4824, 461.073
4825, 461.073
4826, 461.073
4827, 461.073
4828, 461.073
4829, 461.073
4830, 461.073
4831, 461.073
4832, 461.073
4833, 461.073
4834, 461.073
4835, 461.073
4836, 461.073
4837, 461.073
4838, 461.073
4839, 461.073
4840, 461.073
4841, 461.073
4842, 461.073
4843, 461.073
4844, 461.073
4845, 461.073
4846, 461.073
4847, 461.073
4848, 461.073
4849, 461.073
4850, 461.073
4851, 461.073
4852, 461.073
4853, 461.073
4854, 461.073
4855, 461.073
4856, 461.073
4857, 461.073
4858, 461.073
4859, 461.073
4860, 461.073
4861, 461.073
4862, 461.073
4863, 461.073
4864, 461.073
4865, 461.073
4866, 461.073
4867, 461.073
4868, 461.073
4869, 461.073
4870, 461.073
4871, 461.073
4872, 461.073
4873, 461.073
4874, 461.073
4875, 461.073
4876, 461.073
4877, 461.073
4878, 461.073
4879, 461.073
4880, 461.073
4881, 461.073
4882, 461.073
4883, 461.073
4884, 461.073
4885, 461.073
4886, 461.073
4887, 461.073
4888, 461.073
4889, 461.073
4890, 461.073
4891, 461.073
4892, 461.073
4893, 461.073
4894, 461.073
4895, 461.073
4896, 461.073
4897, 461.073
4898, 461.073
4899, 461.073
4900, 461.073
4901, 461.073
4902, 461.073
4903, 461.073
4904, 461.073
4905, 461.073
4906, 461.073
4907, 461.073
4908, 461.073
4909, 461.073
4910, 461.073
4911, 461.073
4912, 461.073
4913, 461.073
4914, 461.073
4915, 461.073
4916, 461.073
4917, 461.073
4918, 461.073
4919, 461.073
4920, 461.073
4921, 461.073
4922, 461.073
4923, 461.073
4924, 461.073
4925, 461.073
4926, 461.073
4927, 461.073
4928, 461.073
4929, 461.073
4930, 461.073
4931, 461.073
4932, 461.073
4933, 461.073
4934, 461.073
4935, 461.073
4936, 461.073
4937, 461.073
4938, 461.073
4939, 461.073
4940, 461.073
4941, 461.073
4942, 461.073
4943, 461.073
4944, 461.073
4945, 461.073
4946, 461.073
4947, 461.073
4948, 461.073
4949, 461.073
4950, 461.073
4951, 461.073
4952, 461.073
4953, 461.073
4954, 461.073
4955, 461.073
4956, 461.073
4957, 461.073
4958, 461.073
4959, 461.073
4960, 461.073
4961, 461.073
4962, 461.073
4963, 461.073
4964, 461.073
4965, 461.073
4966, 461.073
4967, 461.073
4968, 461.073
4969, 461.073
4970, 461.073
4971, 461.073
4972, 461.073
4973, 461.073
4974, 461.073
4975, 461.073
4976, 461.073
4977, 461.073
4978, 461.073
4979, 461.073
4980, 461.073
4981, 461.073
4982, 461.073
4983, 461.073
4984, 461.073
4985, 461.073
4986, 461.073
4987, 461.073
4988, 461.073
4989, 461.073
4990, 461.073
4991, 461.073
4992, 461.073
4993, 461.073
4994, 461.073
4995, 461.073
4996, 461.073
4997, 461.073
4998, 461.073
4999, 461.073
5000, 461.073
5001, 461.073
5002, 461.073
5003, 461.073
5004, 461.073
5005, 461.073
5006, 461.073
5007, 461.073
5008, 461.073
5009, 461.073
5010, 461.073
5011, 461.073
5012, 461.073
5013, 461.073
5014, 461.073
5015, 461.073
5016, 461.073
5017, 461.073
5018, 461.073
5019, 461.073
5020, 461.073
5021, 461.073
5022, 461.073
5023, 461.073
5024, 461.073
5025, 461.073
5026, 461.073
5027, 461.073
5028, 461.073
5029, 461.073
5030, 461.073
5031, 461.073
5032, 461.073
5033, 461.073
5034, 461.073
5035, 461.073
5036, 461.073
5037, 461.073
5038, 461.073
5039, 461.073
5040, 461.073
5041, 461.073
5042, 461.073
5043, 461.073
5044, 461.073
5045, 461.073
5046, 461.073
5047, 461.073
5048, 461.073
5049, 461.073
5050, 461.073
5051, 461.073
5052, 461.073
5053, 461.073
5054, 461.073
5055, 461.073
5056, 461.073
5057, 461.073
5058, 461.073
5059, 461.073
5060, 461.073
5061, 461.073
5062, 461.073
5063, 461.073
5064, 461.073
5065, 461.073
5066, 461.073
5067, 461.073
5068, 461.073
5069, 461.073
5070, 461.073
5071, 461.073
5072, 461.073
5073, 461.073
5074, 461.073
5075, 461.073
5076, 461.073
5077, 461.073
5078, 461.073
5079, 461.073
5080, 461.073
5081, 461.073
5082, 461.073
5083, 461.073
5084, 461.073
5085, 461.073
5086, 461.073
5087, 461.073
5088, 461.073
5089, 461.073
5090, 461.073
5091, 461.073
5092, 461.073
5093, 461.073
5094, 461.073
5095, 461.073
5096, 461.073
5097, 461.073
5098, 461.073
5099, 461.073
5100, 461.073
5101, 461.073
5102, 461.073
5103, 461.073
5104, 461.073
5105, 461.073
5106, 461.073
5107, 461.073
5108, 461.073
5109, 461.073
5110, 461.073
5111, 461.073
5112, 461.073
5113, 461.073
5114, 461.073
5115, 461.073
5116, 461.073
5117, 461.073
5118, 461.073
5119, 461.073
5120, 461.073
5121, 461.073
5122, 461.073
5123, 461.073
5124, 461.073
5125, 461.073
5126, 461.073
5127, 461.073
5128, 461.073
5129, 461.073
5130, 461.073
5131, 461.073
5132, 461.073
5133, 461.073
5134, 461.073
5135, 461.073
5136, 461.073
5137, 461.073
5138, 461.073
5139, 461.073
5140, 461.073
5141, 461.073
5142, 461.073
5143, 461.073
5144, 461.073
5145, 461.073
5146, 461.073
5147, 461.073
5148, 461.073
5149, 461.073
5150, 461.073
5151, 461.073
5152, 461.073
5153, 461.073
5154, 461.073
5155, 461.073
5156, 461.073
5157, 461.073
5158, 461.073
5159, 461.073
5160, 461.073
5161, 461.073
5162, 461.073
5163, 461.073
5164, 461.073
5165, 461.073
5166, 461.073
5167, 461.073
5168, 461.073
5169, 461.073
5170, 461.073
5171, 461.073
5172, 461.073
5173, 461.073
5174, 461.073
5175, 461.073
5176, 461.073
5177, 461.073
5178, 461.073
5179, 461.073
5180, 461.073
5181, 461.073
5182, 461.073
5183, 461.073
5184, 461.073
5185, 461.073
5186, 461.073
5187, 461.073
5188, 461.073
5189, 461.073
5190, 461.073
5191, 461.073
5192, 461.073
5193, 461.073
5194, 461.073
5195, 461.073
5196, 461.073
5197, 461.073
5198, 461.073
5199, 461.073
5200, 461.073
5201, 461.073
5202, 461.073
5203, 461.073
5204, 461.073
5205, 461.073
5206, 461.073
5207, 461.073
5208, 461.073
5209, 461.073
5210, 461.073
5211, 461.073
5212, 461.073
5213, 461.073
5214, 461.073
5215, 461.073
5216, 461.073
5217, 461.073
5218, 461.073
5219, 461.073
5220, 461.073
5221, 461.073
5222, 461.073
5223, 461.073
5224, 461.073
5225, 461.073
5226, 461.073
5227, 461.073
5228, 461.073
5229, 461.073
5230, 461.073
5231, 461.073
5232, 461.073
5233, 461.073
5234, 461.073
5235, 461.073
5236, 461.073
5237, 461.073
5238, 461.073
5239, 461.073
5240, 461.073
5241, 461.073
5242, 461.073
5243, 461.073
5244, 461.073
5245, 461.073
5246, 461.073
5247, 461.073
5248, 461.073
5249, 461.073
5250, 461.073
5251, 461.073
5252, 461.073
5253, 461.073
5254, 461.073
5255, 461.073
5256, 461.073
5257, 461.073
5258, 461.073
5259, 461.073
5260, 461.073
5261, 461.073
5262, 461.073
5263, 461.073
5264, 461.073
5265, 461.073
5266, 461.073
5267, 461.073
5268, 461.073
5269, 461.073
5270, 461.073
5271, 461.073
5272, 461.073
5273, 461.073
5274, 461.073
5275, 461.073
5276, 461.073
5277, 461.073
5278, 461.073
5279, 461.073
5280, 461.073
5281, 461.073
5282, 461.073
5283, 461.073
5284, 461.073
5285, 461.073
5286, 461.073
5287, 461.073
5288, 461.073
5289, 461.073
5290, 461.073
5291, 461.073
5292, 461.073
5293, 461.073
5294, 461.073
5295, 461.073
5296, 461.073
5297, 461.073
5298, 461.073
5299, 461.073
5300, 461.073
5301, 461.073
5302, 461.073
5303, 461.073
5304, 461.073
5305, 461.073
5306, 461.073
5307, 461.073
5308, 461.073
5309, 461.073
5310, 461.073
5311, 461.073
5312, 461.073
5313, 461.073
5314, 461.073
5315, 461.073
5316, 461.073
5317, 461.073
5318, 461.073
5319, 461.073
5320, 461.073
5321, 461.073
5322, 461.073
5323, 461.073
5324, 461.073
5325, 461.073
5326, 461.073
5327, 461.073
5328, 461.073
5329, 461.073
5330, 461.073
5331, 461.073
5332, 461.073
5333, 461.073
5334, 461.073
5335, 461.073
5336, 461.073
5337, 461.073
5338, 461.073
5339, 461.073
5340, 461.073
5341, 461.073
5342, 461.073
5343, 461.073
5344, 461.073
5345, 461.073
5346, 461.073
5347, 461.073
5348, 461.073
5349, 461.073
5350, 461.073
5351, 461.073
5352, 461.073
5353, 461.073
5354, 461.073
5355, 461.073
5356, 461.073
5357, 461.073
5358, 461.073
5359, 461.073
5360, 461.073
5361, 461.073
5362, 461.073
5363, 461.073
5364, 461.073
5365, 461.073
5366, 461.073
5367, 461.073
5368, 461.073
5369, 461.073
5370, 461.073
5371, 461.073
5372, 461.073
5373, 461.073
5374, 461.073
5375, 461.073
5376, 461.073
5377, 461.073
5378, 461.073
5379, 461.073
5380, 461.073
5381, 461.073
5382, 461.073
5383, 461.073
5384, 461.073
5385, 461.073
5386, 461.073
5387, 461.073
5388, 461.073
5389, 461.073
5390, 461.073
5391, 461.073
5392, 461.073
5393, 461.073
5394, 461.073
5395, 461.073
5396, 461.073
5397, 461.073
5398, 461.073
5399, 461.073
5400, 461.073
5401, 461.073
5402, 461.073
5403, 461.073
5404, 461.073
5405, 461.073
5406, 461.073
5407, 461.073
5408, 461.073
5409, 461.073
5410, 461.073
5411, 461.073
5412, 461.073
5413, 461.073
5414, 461.073
5415, 461.073
5416, 461.073
5417, 461.073
5418, 461.073
5419, 461.073
5420, 461.073
5421, 461.073
5422, 461.073
5423, 461.073
5424, 461.073
5425, 461.073
5426, 461.073
5427, 461.073
5428, 461.073
5429, 461.073
5430, 461.073
5431, 461.073
5432, 461.073
5433, 461.073
5434, 461.073
5435, 461.073
5436, 461.073
5437, 461.073
5438, 461.073
5439, 461.073
5440, 461.073
5441, 461.073
5442, 461.073
5443, 461.073
5444, 461.073
5445, 461.073
5446, 461.073
5447, 461.073
5448, 461.073
5449, 461.073
5450, 461.073
5451, 461.073
5452, 461.073
5453, 461.073
5454, 461.073
5455, 461.073
5456, 461.073
5457, 461.073
5458, 461.073
5459, 461.073
5460, 461.073
5461, 461.073
5462, 461.073
5463, 461.073
5464, 461.073
5465, 461.073
5466, 461.073
5467, 461.073
5468, 461.073
5469, 461.073
5470, 461.073
5471, 461.073
5472, 461.073
5473, 461.073
5474, 461.073
5475, 461.073
5476, 461.073
5477, 461.073
5478, 461.073
5479, 461.073
5480, 461.073
5481, 461.073
5482, 461.073
5483, 461.073
5484, 461.073
5485, 461.073
5486, 461.073
5487, 461.073
5488, 461.073
5489, 461.073
5490, 461.073
5491, 461.073
5492, 461.073
5493, 461.073
5494, 461.073
5495, 461.073
5496, 461.073
5497, 461.073
5498, 461.073
5499, 461.073
5500, 461.073
5501, 461.073
5502, 461.073
5503, 461.073
5504, 461.073
5505, 461.073
5506, 461.073
5507, 461.073
5508, 461.073
5509, 461.073
5510, 461.073
5511, 461.073
5512, 461.073
5513, 461.073
5514, 461.073
5515, 461.073
5516, 461.073
5517, 461.073
5518, 461.073
5519, 461.073
5520, 461.073
5521, 461.073
5522, 461.073
5523, 461.073
5524, 461.073
5525, 461.073
5526, 461.073
5527, 461.073
5528, 461.073
5529, 461.073
5530, 461.073
5531, 461.073
5532, 461.073
5533, 461.073
5534, 461.073
5535, 461.073
5536, 461.073
5537, 461.073
5538, 461.073
5539, 461.073
5540, 461.073
5541, 461.073
5542, 461.073
5543, 461.073
5544, 461.073
5545, 461.073
5546, 461.073
5547, 461.073
5548, 461.073
5549, 461.073
5550, 461.073
5551, 461.073
5552, 461.073
5553, 461.073
5554, 461.073
5555, 461.073
5556, 461.073
5557, 461.073
5558, 461.073
5559, 461.073
5560, 461.073
5561, 461.073
5562, 461.073
5563, 461.073
5564, 461.073
5565, 461.073
5566, 461.073
5567, 461.073
5568, 461.073
5569, 461.073
5570, 461.073
5571, 461.073
5572, 461.073
5573, 461.073
5574, 461.073
5575, 461.073
5576, 461.073
5577, 461.073
5578, 461.073
5579, 461.073
5580, 461.073
5581, 461.073
5582, 461.073
5583, 461.073
5584, 461.073
5585, 461.073
5586, 461.073
5587, 461.073
5588, 461.073
5589, 461.073
5590, 461.073
5591, 461.073
5592, 461.073
5593, 461.073
5594, 461.073
5595, 461.073
5596, 461.073
5597, 461.073
5598, 461.073
5599, 461.073
5600, 461.073
5601, 461.073
5602, 461.073
5603, 461.073
5604, 461.073
5605, 461.073
5606, 461.073
5607, 461.073
5608, 461.073
5609, 461.073
5610, 461.073
5611, 461.073
5612, 461.073
5613, 461.073
5614, 461.073
5615, 461.073
5616, 461.073
5617, 461.073
5618, 461.073
5619, 461.073
5620, 461.073
5621, 461.073
5622, 461.073
5623, 461.073
5624, 461.073
5625, 461.073
5626, 461.073
5627, 461.073
5628, 461.073
5629, 461.073
5630, 461.073
5631, 461.073
5632, 461.073
5633, 461.073
5634, 461.073
5635, 461.073
5636, 461.073
5637, 461.073
5638, 461.073
5639, 461.073
5640, 461.073
5641, 461.073
5642, 461.073
5643, 461.073
5644, 461.073
5645, 461.073
5646, 461.073
5647, 461.073
5648, 461.073
5649, 461.073
5650, 461.073
5651, 461.073
5652, 461.073
5653, 461.073
5654, 461.073
5655, 461.073
5656, 461.073
5657, 461.073
5658, 461.073
5659, 461.073
5660, 461.073
5661, 461.073
5662, 461.073
5663, 461.073
5664, 461.073
5665, 461.073
5666, 461.073
5667, 461.073
5668, 461.073
5669, 461.073
5670, 461.073
5671, 461.073
5672, 461.073
5673, 461.073
5674, 461.073
5675, 461.073
5676, 461.073
5677, 461.073
5678, 461.073
5679, 461.073
5680, 461.073
5681, 461.073
5682, 461.073
5683, 461.073
5684, 461.073
5685, 461.073
5686, 461.073
5687, 461.073
5688, 461.073
5689, 461.073
5690, 461.073
5691, 461.073
5692, 461.073
5693, 461.073
5694, 461.073
5695, 461.073
5696, 461.073
5697, 461.073
5698, 461.073
5699, 461.073
5700, 461.073
5701, 461.073
5702, 461.073
5703, 461.073
5704, 461.073
5705, 461.073
5706, 461.073
5707, 461.073
5708, 461.073
5709, 461.073
5710, 461.073
5711, 461.073
5712, 461.073
5713, 461.073
5714, 461.073
5715, 461.073
5716, 461.073
5717, 461.073
5718, 461.073
5719, 461.073
5720, 461.073
5721, 461.073
5722, 461.073
5723, 461.073
5724, 461.073
5725, 461.073
5726, 461.073
5727, 461.073
5728, 461.073
5729, 461.073
5730, 461.073
5731, 461.073
5732, 461.073
5733, 461.073
5734, 461.073
5735, 461.073
5736, 461.073
5737, 461.073
5738, 461.073
5739, 461.073
5740, 461.073
5741, 461.073
5742, 461.073
5743, 461.073
5744, 461.073
5745, 461.073
5746, 461.073
5747, 461.073
5748, 461.073
5749, 461.073
5750, 461.073
5751, 461.073
5752, 461.073
5753, 461.073
5754, 461.073
5755, 461.073
5756, 461.073
5757, 461.073
5758, 461.073
5759, 461.073
5760, 461.073
5761, 461.073
5762, 461.073
5763, 461.073
5764, 461.073
5765, 461.073
5766, 461.073
5767, 461.073
5768, 461.073
5769, 461.073
5770, 461.073
5771, 461.073
5772, 461.073
5773, 461.073
5774, 461.073
5775, 461.073
5776, 461.073
5777, 461.073
5778, 461.073
5779, 461.073
5780, 461.073
5781, 461.073
5782, 461.073
5783, 461.073
5784, 461.073
5785, 461.073
5786, 461.073
5787, 461.073
5788, 461.073
5789, 461.073
5790, 461.073
5791, 461.073
5792, 461.073
5793, 461.073
5794, 461.073
5795, 461.073
5796, 461.073
5797, 461.073
5798, 461.073
5799, 461.073
5800, 461.073
5801, 461.073
5802, 461.073
5803, 461.073
5804, 461.073
5805, 461.073
5806, 461.073
5807, 461.073
5808, 461.073
5809, 461.073
5810, 461.073
5811, 461.073
5812, 461.073
5813, 461.073
5814, 461.073
5815, 461.073
5816, 461.073
5817, 461.073
5818, 461.073
5819, 461.073
5820, 461.073
5821, 461.073
5822, 461.073
5823, 461.073
5824, 461.073
5825, 461.073
5826, 461.073
5827, 461.073
5828, 461.073
5829, 461.073
5830, 461.073
5831, 461.073
5832, 461.073
5833, 461.073
5834, 461.073
5835, 461.073
5836, 461.073
5837, 461.073
5838, 461.073
5839, 461.073
5840, 461.073
5841, 461.073
5842, 461.073
5843, 461.073
5844, 461.073
5845, 461.073
5846, 461.073
5847, 461.073
5848, 461.073
5849, 461.073
5850, 461.073
5851, 461.073
5852, 461.073
5853, 461.073
5854, 461.073
5855, 461.073
5856, 461.073
5857, 461.073
5858, 461.073
5859, 461.073
5860, 461.073
5861, 461.073
5862, 461.073
5863, 461.073
5864, 461.073
5865, 461.073
5866, 461.073
5867, 461.073
5868, 461.073
5869, 461.073
5870, 461.073
5871, 461.073
5872, 461.073
5873, 461.073
5874, 461.073
5875, 461.073
5876, 461.073
5877, 461.073
5878, 461.073
5879, 461.073
5880, 461.073
5881, 461.073
5882, 461.073
5883, 461.073
5884, 461.073
5885, 461.073
5886, 461.073
5887, 461.073
5888, 461.073
5889, 461.073
5890, 461.073
5891, 461.073
5892, 461.073
5893, 461.073
5894, 461.073
5895, 461.073
5896, 461.073
5897, 461.073
5898, 461.073
5899, 461.073
5900, 461.073
5901, 461.073
5902, 461.073
5903, 461.073
5904, 461.073
5905, 461.073
5906, 461.073
5907, 461.073
5908, 461.073
5909, 461.073
5910, 461.073
5911, 461.073
5912, 461.073
5913, 461.073
5914, 461.073
5915, 461.073
5916, 461.073
5917, 461.073
5918, 461.073
5919, 461.073
5920, 461.073
5921, 461.073
5922, 461.073
5923, 461.073
5924, 461.073
5925, 461.073
5926, 461.073
5927, 461.073
5928, 461.073
5929, 461.073
5930, 461.073
5931, 461.073
5932, 461.073
5933, 461.073
5934, 461.073
5935, 461.073
5936, 461.073
5937, 461.073
5938, 461.073
5939, 461.073
5940, 461.073
5941, 461.073
5942, 461.073
5943, 461.073
5944, 461.073
5945, 461.073
5946, 461.073
5947, 461.073
5948, 461.073
5949, 461.073
5950, 461.073
5951, 461.073
5952, 461.073
5953, 461.073
5954, 461.073
5955, 461.073
5956, 461.073
5957, 461.073
5958, 461.073
5959, 461.073
5960, 461.073
5961, 461.073
5962, 461.073
5963, 461.073
5964, 461.073
5965, 461.073
5966, 461.073
5967, 461.073
5968, 461.073
5969, 461.073
5970, 461.073
5971, 461.073
5972, 461.073
5973, 461.073
5974, 461.073
5975, 461.073
5976, 461.073
5977, 461.073
5978, 461.073
5979, 461.073
5980, 461.073
5981, 461.073
5982, 461.073
5983, 461.073
5984, 461.073
5985, 461.073
5986, 461.073
5987, 461.073
5988, 461.073
5989, 461.073
5990, 461.073
5991, 461.073
5992, 461.073
5993, 461.073
5994, 461.073
5995, 461.073
5996, 461.073
5997, 461.073
5998, 461.073
5999, 461.073
6000, 461.073
6001, 461.073
6002, 461.073
6003, 461.073
6004, 461.073
6005, 461.073
6006, 461.073
6007, 461.073
6008, 461.073
6009, 461.073
6010, 461.073
6011, 461.073
6012, 461.073
6013, 461.073
6014, 461.073
6015, 461.073
6016, 461.073
6017, 461.073
6018, 461.073
6019, 461.073
6020, 461.073
6021, 461.073
6022, 461.073
6023, 461.073
6024, 461.073
6025, 461.073
6026, 461.073
6027, 461.073
6028, 461.073
6029, 461.073
6030, 461.073
6031, 461.073
6032, 461.073
6033, 461.073
6034, 461.073
6035, 461.073
6036, 461.073
6037, 461.073
6038, 461.073
6039, 461.073
6040, 461.073
6041, 461.073
6042, 461.073
6043, 461.073
6044, 461.073
6045, 461.073
6046, 461.073
6047, 461.073
6048, 461.073
6049, 461.073
6050, 461.073
6051, 461.073
6052, 461.073
6053, 461.073
6054, 461.073
6055, 461.073
6056, 461.073
6057, 461.073
6058, 461.073
6059, 461.073
6060, 461.073
6061, 461.073
6062, 461.073
6063, 461.073
6064, 461.073
6065, 461.073
6066, 461.073
6067, 461.073
6068, 461.073
6069, 461.073
6070, 461.073
6071, 461.073
6072, 461.073
6073, 461.073
6074, 461.073
6075, 461.073
6076, 461.073
6077, 461.073
6078, 461.073
6079, 461.073
6080, 461.073
6081, 461.073
6082, 461.073
6083, 461.073
6084, 461.073
6085, 461.073
6086, 461.073
6087, 461.073
6088, 461.073
6089, 461.073
6090, 461.073
6091, 461.073
6092, 461.073
6093, 461.073
6094, 461.073
6095, 461.073
6096, 461.073
6097, 461.073
6098, 461.073
6099, 461.073
6100, 461.073
6101, 461.073
6102, 461.073
6103, 461.073
6104, 461.073
6105, 461.073
6106, 461.073
6107, 461.073
6108, 461.073
6109, 461.073
6110, 461.073
6111, 461.073
6112, 461.073
6113, 461.073
6114, 461.073
6115, 461.073
6116, 461.073
6117, 461.073
6118, 461.073
6119, 461.073
6120, 461.073
6121, 461.073
6122, 461.073
6123, 461.073
6124, 461.073
6125, 461.073
6126, 461.073
6127, 461.073
6128, 461.073
6129, 461.073
6130, 461.073
6131, 461.073
6132, 461.073
6133, 461.073
6134, 461.073
6135, 461.073
6136, 461.073
6137, 461.073
6138, 461.073
6139, 461.073
6140, 461.073
6141, 461.073
6142, 461.073
6143, 461.073
6144, 461.073
6145, 461.073
6146, 461.073
6147, 461.073
6148, 461.073
6149, 461.073
6150, 461.073
6151, 461.073
6152, 461.073
6153, 461.073
6154, 461.073
6155, 461.073
6156, 461.073
6157, 461.073
6158, 461.073
6159, 461.073
6160, 461.073
6161, 461.073
6162, 461.073
6163, 461.073
6164, 461.073
6165, 461.073
6166, 461.073
6167, 461.073
6168, 461.073
6169, 461.073
6170, 461.073
6171, 461.073
6172, 461.073
6173, 461.073
6174, 461.073
6175, 461.073
6176, 461.073
6177, 461.073
6178, 461.073
6179, 461.073
6180, 461.073
6181, 461.073
6182, 461.073
6183, 461.073
6184, 461.073
6185, 461.073
6186, 461.073
6187, 461.073
6188, 461.073
6189, 461.073
6190, 461.073
6191, 461.073
6192, 461.073
6193, 461.073
6194, 461.073
6195, 461.073
6196, 461.073
6197, 461.073
6198, 461.073
6199, 461.073
6200, 461.073
6201, 461.073
6202, 461.073
6203, 461.073
6204, 461.073
6205, 461.073
6206, 461.073
6207, 461.073
6208, 461.073
6209, 461.073
6210, 461.073
6211, 461.073
6212, 461.073
6213, 461.073
6214, 461.073
6215, 461.073
6216, 461.073
6217, 461.073
6218, 461.073
6219, 461.073
6220, 461.073
6221, 461.073
6222, 461.073
6223, 461.073
6224, 461.073
6225, 461.073
6226, 461.073
6227, 461.073
6228, 461.073
6229, 461.073
6230, 461.073
6231, 461.073
6232, 461.073
6233, 461.073
6234, 461.073
6235, 461.073
6236, 461.073
6237, 461.073
6238, 461.073
6239, 461.073
6240, 461.073
6241, 461.073
6242, 461.073
6243, 461.073
6244, 461.073
6245, 461.073
6246, 461.073
6247, 461.073
6248, 461.073
6249, 461.073
6250, 461.073
6251, 461.073
6252, 461.073
6253, 461.073
6254, 461.073
6255, 461.073
6256, 461.073
6257, 461.073
6258, 461.073
6259, 461.073
6260, 461.073
6261, 461.073
6262, 461.073
6263, 461.073
6264, 461.073
6265, 461.073
6266, 461.073
6267, 461.073
6268, 461.073
6269, 461.073
6270, 461.073
6271, 461.073
6272, 461.073
6273, 461.073
6274, 461.073
6275, 461.073
6276, 461.073
6277, 461.073
6278, 461.073
6279, 461.073
6280, 461.073
6281, 461.073
6282, 461.073
6283, 461.073
6284, 461.073
6285, 461.073
6286, 461.073
6287, 461.073
6288, 461.073
6289, 461.073
6290, 461.073
6291, 461.073
6292, 461.073
6293, 461.073
6294, 461.073
6295, 461.073
6296, 461.073
6297, 461.073
6298, 461.073
6299, 461.073
6300, 461.073
6301, 461.073
6302, 461.073
6303, 461.073
6304, 461.073
6305, 461.073
6306, 461.073
6307, 461.073
6308, 461.073
6309, 461.073
6310, 461.073
6311, 461.073
6312, 461.073
6313, 461.073
6314, 461.073
6315, 461.073
6316, 461.073
6317, 461.073
6318, 461.073
6319, 461.073
6320, 461.073
6321, 461.073
6322, 461.073
6323, 461.073
6324, 461.073
6325, 461.073
6326, 461.073
6327, 461.073
6328, 461.073
6329, 461.073
6330, 461.073
6331, 461.073
6332, 461.073
6333, 461.073
6334, 461.073
6335, 461.073
6336, 461.073
6337, 461.073
6338, 461.073
6339, 461.073
6340, 461.073
6341, 461.073
6342, 461.073
6343, 461.073
6344, 461.073
6345, 461.073
6346, 461.073
6347, 461.073
6348, 461.073
6349, 461.073
6350, 461.073
6351, 461.073
6352, 461.073
6353, 461.073
6354, 461.073
6355, 461.073
6356, 461.073
6357, 461.073
6358, 461.073
6359, 461.073
6360, 461.073
6361, 461.073
6362, 461.073
6363, 461.073
6364, 461.073
6365, 461.073
6366, 461.073
6367, 461.073
6368, 461.073
6369, 461.073
6370, 461.073
6371, 461.073
6372, 461.073
6373, 461.073
6374, 461.073
6375, 461.073
6376, 461.073
6377, 461.073
6378, 461.073
6379, 461.073
6380, 461.073
6381, 461.073
6382, 461.073
6383, 461.073
6384, 461.073
6385, 461.073
6386, 461.073
6387, 461.073
6388, 461.073
6389, 461.073
6390, 461.073
6391, 461.073
6392, 461.073
6393, 461.073
6394, 461.073
6395, 461.073
6396, 461.073
6397, 461.073
6398, 461.073
6399, 461.073
6400, 461.073
6401, 461.073
6402, 461.073
6403, 461.073
6404, 461.073
6405, 461.073
6406, 461.073
6407, 461.073
6408, 461.073
6409, 461.073
6410, 461.073
6411, 461.073
6412, 461.073
6413, 461.073
6414, 461.073
6415, 461.073
6416, 461.073
6417, 461.073
6418, 461.073
6419, 461.073
6420, 461.073
6421, 461.073
6422, 461.073
6423, 461.073
6424, 461.073
6425, 461.073
6426, 461.073
6427, 461.073
6428, 461.073
6429, 461.073
6430, 461.073
6431, 461.073
6432, 461.073
6433, 461.073
6434, 461.073
6435, 461.073
6436, 461.073
6437, 461.073
6438, 461.073
6439, 461.073
6440, 461.073
6441, 461.073
6442, 461.073
6443, 461.073
6444, 461.073
6445, 461.073
6446, 461.073
6447, 461.073
6448, 461.073
6449, 461.073
6450, 461.073
6451, 461.073
6452, 461.073
6453, 461.073
6454, 461.073
6455, 461.073
6456, 461.073
6457, 461.073
6458, 461.073
6459, 461.073
6460, 461.073
6461, 461.073
6462, 461.073
6463, 461.073
6464, 461.073
6465, 461.073
6466, 461.073
6467, 461.073
6468, 461.073
6469, 461.073
6470, 461.073
6471, 461.073
6472, 461.073
6473, 461.073
6474, 461.073
6475, 461.073
6476, 461.073
6477, 461.073
6478, 461.073
6479, 461.073
6480, 461.073
6481, 461.073
6482, 461.073
6483, 461.073
6484, 461.073
6485, 461.073
6486, 461.073
6487, 461.073
6488, 461.073
6489, 461.073
6490, 461.073
6491, 461.073
6492, 461.073
6493, 461.073
6494, 461.073
6495, 461.073
6496, 461.073
6497, 461.073
6498, 461.073
6499, 461.073
6500, 461.073
6501, 461.073
6502, 461.073
6503, 461.073
6504, 461.073
6505, 461.073
6506, 461.073
6507, 461.073
6508, 461.073
6509, 461.073
6510, 461.073
6511, 461.073
6512, 461.073
6513, 461.073
6514, 461.073
6515, 461.073
6516, 461.073
6517, 461.073
6518, 461.073
6519, 461.073
6520, 461.073
6521, 461.073
6522, 461.073
6523, 461.073
6524, 461.073
6525, 461.073
6526, 461.073
6527, 461.073
6528, 461.073
6529, 461.073
6530, 461.073
6531, 461.073
6532, 461.073
6533, 461.073
6534, 461.073
6535, 461.073
6536, 461.073
6537, 461.073
6538, 461.073
6539, 461.073
6540, 461.073
6541, 461.073
6542, 461.073
6543, 461.073
6544, 461.073
6545, 461.073
6546, 461.073
6547, 461.073
6548, 461.073
6549, 461.073
6550, 461.073
6551, 461.073
6552, 461.073
6553, 461.073
6554, 461.073
6555, 461.073
6556, 461.073
6557, 461.073
6558, 461.073
6559, 461.073
6560, 461.073
6561, 461.073
6562, 461.073
6563, 461.073
6564, 461.073
6565, 461.073
6566, 461.073
6567, 461.073
6568, 461.073
6569, 461.073
6570, 461.073
6571, 461.073
6572, 461.073
6573, 461.073
6574, 461.073
6575, 461.073
6576, 461.073
6577, 461.073
6578, 461.073
6579, 461.073
6580, 461.073
6581, 461.073
6582, 461.073
6583, 461.073
6584, 461.073
6585, 461.073
6586, 461.073
6587, 461.073
6588, 461.073
6589, 461.073
6590, 461.073
6591, 461.073
6592, 461.073
6593, 461.073
6594, 461.073
6595, 461.073
6596, 461.073
6597, 461.073
6598, 461.073
6599, 461.073
6600, 461.073
6601, 461.073
6602, 461.073
6603, 461.073
6604, 461.073
6605, 461.073
6606, 461.073
6607, 461.073
6608, 461.073
6609, 461.073
6610, 461.073
6611, 461.073
6612, 461.073
6613, 461.073
6614, 461.073
6615, 461.073
6616, 461.073
6617, 461.073
6618, 461.073
6619, 461.073
6620, 461.073
6621, 461.073
6622, 461.073
6623, 461.073
6624, 461.073
6625, 461.073
6626, 461.073
6627, 461.073
6628, 461.073
6629, 461.073
6630, 461.073
6631, 461.073
6632, 461.073
6633, 461.073
6634, 461.073
6635, 461.073
6636, 461.073
6637, 461.073
6638, 461.073
6639, 461.073
6640, 461.073
6641, 461.073
6642, 461.073
6643, 461.073
6644, 461.073
6645, 461.073
6646, 461.073
6647, 461.073
6648, 461.073
6649, 461.073
6650, 461.073
6651, 461.073
6652, 461.073
6653, 461.073
6654, 461.073
6655, 461.073
6656, 461.073
6657, 461.073
6658, 461.073
6659, 461.073
6660, 461.073
6661, 461.073
6662, 461.073
6663, 461.073
6664, 461.073
6665, 461.073
6666, 461.073
6667, 461.073
6668, 461.073
6669, 461.073
6670, 461.073
6671, 461.073
6672, 461.073
6673, 461.073
6674, 461.073
6675, 461.073
6676, 461.073
6677, 461.073
6678, 461.073
6679, 461.073
6680, 461.073
6681, 461.073
6682, 461.073
6683, 461.073
6684, 461.073
6685, 461.073
6686, 461.073
6687, 461.073
6688, 461.073
6689, 461.073
6690, 461.073
6691, 461.073
6692, 461.073
6693, 461.073
6694, 461.073
6695, 461.073
6696, 461.073
6697, 461.073
6698, 461.073
6699, 461.073
6700, 461.073
6701, 461.073
6702, 461.073
6703, 461.073
6704, 461.073
6705, 461.073
6706, 461.073
6707, 461.073
6708, 461.073
6709, 461.073
6710, 461.073
6711, 461.073
6712, 461.073
6713, 461.073
6714, 461.073
6715, 461.073
6716, 461.073
6717, 461.073
6718, 461.073
6719, 461.073
6720, 461.073
6721, 461.073
6722, 461.073
6723, 461.073
6724, 461.073
6725, 461.073
6726, 461.073
6727, 461.073
6728, 461.073
6729, 461.073
6730, 461.073
6731, 461.073
6732, 461.073
6733, 461.073
6734, 461.073
6735, 461.073
6736, 461.073
6737, 461.073
6738, 461.073
6739, 461.073
6740, 461.073
6741, 461.073
6742, 461.073
6743, 461.073
6744, 461.073
6745, 461.073
6746, 461.073
6747, 461.073
6748, 461.073
6749, 461.073
6750, 461.073
6751, 461.073
6752, 461.073
6753, 461.073
6754, 461.073
6755, 461.073
6756, 461.073
6757, 461.073
6758, 461.073
6759, 461.073
6760, 461.073
6761, 461.073
6762, 461.073
6763, 461.073
6764, 461.073
6765, 461.073
6766, 461.073
6767, 461.073
6768, 461.073
6769, 461.073
6770, 461.073
6771, 461.073
6772, 461.073
6773, 461.073
6774, 461.073
6775, 461.073
6776, 461.073
6777, 461.073
6778, 461.073
6779, 461.073
6780, 461.073
6781, 461.073
6782, 461.073
6783, 461.073
6784, 461.073
6785, 461.073
6786, 461.073
6787, 461.073
6788, 461.073
6789, 461.073
6790, 461.073
6791, 461.073
6792, 461.073
6793, 461.073
6794, 461.073
6795, 461.073
6796, 461.073
6797, 461.073
6798, 461.073
6799, 461.073
6800, 461.073
6801, 461.073
6802, 461.073
6803, 461.073
6804, 461.073
6805, 461.073
6806, 461.073
6807, 461.073
6808, 461.073
6809, 461.073
6810, 461.073
6811, 461.073
6812, 461.073
6813, 461.073
6814, 461.073
6815, 461.073
6816, 461.073
6817, 461.073
6818, 461.073
6819, 461.073
6820, 461.073
6821, 461.073
6822, 461.073
6823, 461.073
6824, 461.073
6825, 461.073
6826, 461.073
6827, 461.073
6828, 461.073
6829, 461.073
6830, 461.073
6831, 461.073
6832, 461.073
6833, 461.073
6834, 461.073
6835, 461.073
6836, 461.073
6837, 461.073
6838, 461.073
6839, 461.073
6840, 461.073
6841, 461.073
6842, 461.073
6843, 461.073
6844, 461.073
6845, 461.073
6846, 461.073
6847, 461.073
6848, 461.073
6849, 461.073
6850, 461.073
6851, 461.073
6852, 461.073
6853, 461.073
6854, 461.073
6855, 461.073
6856, 461.073
6857, 461.073
6858, 461.073
6859, 461.073
6860, 461.073
6861, 461.073
6862, 461.073
6863, 461.073
6864, 461.073
6865, 461.073
6866, 461.073
6867, 461.073
6868, 461.073
6869, 461.073
6870, 461.073
6871, 461.073
6872, 461.073
6873, 461.073
6874, 461.073
6875, 461.073
6876, 461.073
6877, 461.073
6878, 461.073
6879, 461.073
6880, 461.073
6881, 461.073
6882, 461.073
6883, 461.073
6884, 461.073
6885, 461.073
6886, 461.073
6887, 461.073
6888, 461.073
6889, 461.073
6890, 461.073
6891, 461.073
6892, 461.073
6893, 461.073
6894, 461.073
6895, 461.073
6896, 461.073
6897, 461.073
6898, 461.073
6899, 461.073
6900, 461.073
6901, 461.073
6902, 461.073
6903, 461.073
6904, 461.073
6905, 461.073
6906, 461.073
6907, 461.073
6908, 461.073
6909, 461.073
6910, 461.073
6911, 461.073
6912, 461.073
6913, 461.073
6914, 461.073
6915, 461.073
6916, 461.073
6917, 461.073
6918, 461.073
6919, 461.073
6920, 461.073
6921, 461.073
6922, 461.073
6923, 461.073
6924, 461.073
6925, 461.073
6926, 461.073
6927, 461.073
6928, 461.073
6929, 461.073
6930, 461.073
6931, 461.073
6932, 461.073
6933, 461.073
6934, 461.073
6935, 461.073
6936, 461.073
6937, 461.073
6938, 461.073
6939, 461.073
6940, 461.073
6941, 461.073
6942, 461.073
6943, 461.073
6944, 461.073
6945, 461.073
6946, 461.073
6947, 461.073
6948, 461.073
6949, 461.073
6950, 461.073
6951, 461.073
6952, 461.073
6953, 461.073
6954, 461.073
6955, 461.073
6956, 461.073
6957, 461.073
6958, 461.073
6959, 461.073
6960, 461.073
6961, 461.073
6962, 461.073
6963, 461.073
6964, 461.073
6965, 461.073
6966, 461.073
6967, 461.073
6968, 461.073
6969, 461.073
6970, 461.073
6971, 461.073
6972, 461.073
6973, 461.073
6974, 461.073
6975, 461.073
6976, 461.073
6977, 461.073
6978, 461.073
6979, 461.073
6980, 461.073
6981, 461.073
6982, 461.073
6983, 461.073
6984, 461.073
6985, 461.073
6986, 461.073
6987, 461.073
6988, 461.073
6989, 461.073
6990, 461.073
6991, 461.073
6992, 461.073
6993, 461.073
6994, 461.073
6995, 461.073
6996, 461.073
6997, 461.073
6998, 461.073
6999, 461.073
7000, 461.073
7001, 461.073
7002, 461.073
7003, 461.073
7004, 461.073
7005, 461.073
7006, 461.073
7007, 461.073
7008, 461.073
7009, 461.073
7010, 461.073
7011, 461.073
7012, 461.073
7013, 461.073
7014, 461.073
7015, 461.073
7016, 461.073
7017, 461.073
7018, 461.073
7019, 461.073
7020, 461.073
7021, 461.073
7022, 461.073
7023, 461.073
7024, 461.073
7025, 461.073
7026, 461.073
7027, 461.073
7028, 461.073
7029, 461.073
7030, 461.073
7031, 461.073
7032, 461.073
7033, 461.073
7034, 461.073
7035, 461.073
7036, 461.073
7037, 461.073
7038, 461.073
7039, 461.073
7040, 461.073
7041, 461.073
7042, 461.073
7043, 461.073
7044, 461.073
7045, 461.073
7046, 461.073
7047, 461.073
7048, 461.073
7049, 461.073
7050, 461.073
7051, 461.073
7052, 461.073
7053, 461.073
7054, 461.073
7055, 461.073
7056, 461.073
7057, 461.073
7058, 461.073
7059, 461.073
7060, 461.073
7061, 461.073
7062, 461.073
7063, 461.073
7064, 461.073
7065, 461.073
7066, 461.073
7067, 461.073
7068, 461.073
7069, 461.073
7070, 461.073
7071, 461.073
7072, 461.073
7073, 461.073
7074, 461.073
7075, 461.073
7076, 461.073
7077, 461.073
7078, 461.073
7079, 461.073
7080, 461.073
7081, 461.073
7082, 461.073
7083, 461.073
7084, 461.073
7085, 461.073
7086, 461.073
7087, 461.073
7088, 461.073
7089, 461.073
7090, 461.073
7091, 461.073
7092, 461.073
7093, 461.073
7094, 461.073
7095, 461.073
7096, 461.073
7097, 461.073
7098, 461.073
7099, 461.073
7100, 461.073
7101, 461.073
7102, 461.073
7103, 461.073
7104, 461.073
7105, 461.073
7106, 461.073
7107, 461.073
7108, 461.073
7109, 461.073
7110, 461.073
7111, 461.073
7112, 461.073
7113, 461.073
7114, 461.073
7115, 461.073
7116, 461.073
7117, 461.073
7118, 461.073
7119, 461.073
7120, 461.073
7121, 461.073
7122, 461.073
7123, 461.073
7124, 461.073
7125, 461.073
7126, 461.073
7127, 461.073
7128, 461.073
7129, 461.073
7130, 461.073
7131, 461.073
7132, 461.073
7133, 461.073
7134, 461.073
7135, 461.073
7136, 461.073
7137, 461.073
7138, 461.073
7139, 461.073
7140, 461.073
7141, 461.073
7142, 461.073
7143, 461.073
7144, 461.073
7145, 461.073
7146, 461.073
7147, 461.073
7148, 461.073
7149, 461.073
7150, 461.073
7151, 461.073
7152, 461.073
7153, 461.073
7154, 461.073
7155, 461.073
7156, 461.073
7157, 461.073
7158, 461.073
7159, 461.073
7160, 461.073
7161, 461.073
7162, 461.073
7163, 461.073
7164, 461.073
7165, 461.073
7166, 461.073
7167, 461.073
7168, 461.073
7169, 461.073
7170, 461.073
7171, 461.073
7172, 461.073
7173, 461.073
7174, 461.073
7175, 461.073
7176, 461.073
7177, 461.073
7178, 461.073
7179, 461.073
7180, 461.073
7181, 461.073
7182, 461.073
7183, 461.073
7184, 461.073
7185, 461.073
7186, 461.073
7187, 461.073
7188, 461.073
7189, 461.073
7190, 461.073
7191, 461.073
7192, 461.073
7193, 461.073
7194, 461.073
7195, 461.073
7196, 461.073
7197, 461.073
7198, 461.073
7199, 461.073
7200, 461.073
7201, 461.073
7202, 461.073
7203, 461.073
7204, 461.073
7205, 461.073
7206, 461.073
7207, 461.073
7208, 461.073
7209, 461.073
7210, 461.073
7211, 461.073
7212, 461.073
7213, 461.073
7214, 461.073
7215, 461.073
7216, 461.073
7217, 461.073
7218, 461.073
7219, 461.073
7220, 461.073
7221, 461.073
7222, 461.073
7223, 461.073
7224, 461.073
7225, 461.073
7226, 461.073
7227, 461.073
7228, 461.073
7229, 461.073
7230, 461.073
7231, 461.073
7232, 461.073
7233, 461.073
7234, 461.073
7235, 461.073
7236, 461.073
7237, 461.073
7238, 461.073
7239, 461.073
7240, 461.073
7241, 461.073
7242, 461.073
7243, 461.073
7244, 461.073
7245, 461.073
7246, 461.073
7247, 461.073
7248, 461.073
7249, 461.073
7250, 461.073
7251, 461.073
7252, 461.073
7253, 461.073
7254, 461.073
7255, 461.073
7256, 461.073
7257, 461.073
7258, 461.073
7259, 461.073
7260, 461.073
7261, 461.073
7262, 461.073
7263, 461.073
7264, 461.073
7265, 461.073
7266, 461.073
7267, 461.073
7268, 461.073
7269, 461.073
7270, 461.073
7271, 461.073
7272, 461.073
7273, 461.073
7274, 461.073
7275, 461.073
7276, 461.073
7277, 461.073
7278, 461.073
7279, 461.073
7280, 461.073
7281, 461.073
7282, 461.073
7283, 461.073
7284, 461.073
7285, 461.073
7286, 461.073
7287, 461.073
7288, 461.073
7289, 461.073
7290, 461.073
7291, 461.073
7292, 461.073
7293, 461.073
7294, 461.073
7295, 461.073
7296, 461.073
7297, 461.073
7298, 461.073
7299, 461.073
7300, 461.073
7301, 461.073
7302, 461.073
7303, 461.073
7304, 461.073
7305, 461.073
7306, 461.073
7307, 461.073
7308, 461.073
7309, 461.073
7310, 461.073
7311, 461.073
7312, 461.073
7313, 461.073
7314, 461.073
7315, 461.073
7316, 461.073
7317, 461.073
7318, 461.073
7319, 461.073
7320, 461.073
7321, 461.073
7322, 461.073
7323, 461.073
7324, 461.073
7325, 461.073
7326, 461.073
7327, 461.073
7328, 461.073
7329, 461.073
7330, 461.073
7331, 461.073
7332, 461.073
7333, 461.073
7334, 461.073
7335, 461.073
7336, 461.073
7337, 461.073
7338, 461.073
7339, 461.073
7340, 461.073
7341, 461.073
7342, 461.073
7343, 461.073
7344, 461.073
7345, 461.073
7346, 461.073
7347, 461.073
7348, 461.073
7349, 461.073
7350, 461.073
7351, 461.073
7352, 461.073
7353, 461.073
7354, 461.073
7355, 461.073
7356, 461.073
7357, 461.073
7358, 461.073
7359, 461.073
7360, 461.073
7361, 461.073
7362, 461.073
7363, 461.073
7364, 461.073
7365, 461.073
7366, 461.073
7367, 461.073
7368, 461.073
7369, 461.073
7370, 461.073
7371, 461.073
7372, 461.073
7373, 461.073
7374, 461.073
7375, 461.073
7376, 461.073
7377, 461.073
7378, 461.073
7379, 461.073
7380, 461.073
7381, 461.073
7382, 461.073
7383, 461.073
7384, 461.073
7385, 461.073
7386, 461.073
7387, 461.073
7388, 461.073
7389, 461.073
7390, 461.073
7391, 461.073
7392, 461.073
7393, 461.073
7394, 461.073
7395, 461.073
7396, 461.073
7397, 461.073
7398, 461.073
7399, 461.073
7400, 461.073
7401, 461.073
7402, 461.073
7403, 461.073
7404, 461.073
7405, 461.073
7406, 461.073
7407, 461.073
7408, 461.073
7409, 461.073
7410, 461.073
7411, 461.073
7412, 461.073
7413, 461.073
7414, 461.073
7415, 461.073
7416, 461.073
7417, 461.073
7418, 461.073
7419, 461.073
7420, 461.073
7421, 461.073
7422, 461.073
7423, 461.073
7424, 461.073
7425, 461.073
7426, 461.073
7427, 461.073
7428, 461.073
7429, 461.073
7430, 461.073
7431, 461.073
7432, 461.073
7433, 461.073
7434, 461.073
7435, 461.073
7436, 461.073
7437, 461.073
7438, 461.073
7439, 461.073
7440, 461.073
7441, 461.073
7442, 461.073
7443, 461.073
7444, 461.073
7445, 461.073
7446, 461.073
7447, 461.073
7448, 461.073
7449, 461.073
7450, 461.073
7451, 461.073
7452, 461.073
7453, 461.073
7454, 461.073
7455, 461.073
7456, 461.073
7457, 461.073
7458, 461.073
7459, 461.073
7460, 461.073
7461, 461.073
7462, 461.073
7463, 461.073
7464, 461.073
7465, 461.073
7466, 461.073
7467, 461.073
7468, 461.073
7469, 461.073
7470, 461.073
7471, 461.073
7472, 461.073
7473, 461.073
7474, 461.073
7475, 461.073
7476, 461.073
7477, 461.073
7478, 461.073
7479, 461.073
7480, 461.073
7481, 461.073
7482, 461.073
7483, 461.073
7484, 461.073
7485, 461.073
7486, 461.073
7487, 461.073
7488, 461.073
7489, 461.073
7490, 461.073
7491, 461.073
7492, 461.073
7493, 461.073
7494, 461.073
7495, 461.073
7496, 461.073
7497, 461.073
7498, 461.073
7499, 461.073
7500, 461.073
7501, 461.073
7502, 461.073
7503, 461.073
7504, 461.073
7505, 461.073
7506, 461.073
7507, 461.073
7508, 461.073
7509, 461.073
7510, 461.073
7511, 461.073
7512, 461.073
7513, 461.073
7514, 461.073
7515, 461.073
7516, 461.073
7517, 461.073
7518, 461.073
7519, 461.073
7520, 461.073
7521, 461.073
7522, 461.073
7523, 461.073
7524, 461.073
7525, 461.073
7526, 461.073
7527, 461.073
7528, 461.073
7529, 461.073
7530, 461.073
7531, 461.073
7532, 461.073
7533, 461.073
7534, 461.073
7535, 461.073
7536, 461.073
7537, 461.073
7538, 461.073
7539, 461.073
7540, 461.073
7541, 461.073
7542, 461.073
7543, 461.073
7544, 461.073
7545, 461.073
7546, 461.073
7547, 461.073
7548, 461.073
7549, 461.073
7550, 461.073
7551, 461.073
7552, 461.073
7553, 461.073
7554, 461.073
7555, 461.073
7556, 461.073
7557, 461.073
7558, 461.073
7559, 461.073
7560, 461.073
7561, 461.073
7562, 461.073
7563, 461.073
7564, 461.073
7565, 461.073
7566, 461.073
7567, 461.073
7568, 461.073
7569, 461.073
7570, 461.073
7571, 461.073
7572, 461.073
7573, 461.073
7574, 461.073
7575, 461.073
7576, 461.073
7577, 461.073
7578, 461.073
7579, 461.073
7580, 461.073
7581, 461.073
7582, 461.073
7583, 461.073
7584, 461.073
7585, 461.073
7586, 461.073
7587, 461.073
7588, 461.073
7589, 461.073
7590, 461.073
7591, 461.073
7592, 461.073
7593, 461.073
7594, 461.073
7595, 461.073
7596, 461.073
7597, 461.073
7598, 461.073
7599, 461.073
7600, 461.073
7601, 461.073
7602, 461.073
7603, 461.073
7604, 461.073
7605, 461.073
7606, 461.073
7607, 461.073
7608, 461.073
7609, 461.073
7610, 461.073
7611, 461.073
7612, 461.073
7613, 461.073
7614, 461.073
7615, 461.073
7616, 461.073
7617, 461.073
7618, 461.073
7619, 461.073
7620, 461.073
7621, 461.073
7622, 461.073
7623, 461.073
7624, 461.073
7625, 461.073
7626, 461.073
7627, 461.073
7628, 461.073
7629, 461.073
7630, 461.073
7631, 461.073
7632, 461.073
7633, 461.073
7634, 461.073
7635, 461.073
7636, 461.073
7637, 461.073
7638, 461.073
7639, 461.073
7640, 461.073
7641, 461.073
7642, 461.073
7643, 461.073
7644, 461.073
7645, 461.073
7646, 461.073
7647, 461.073
7648, 461.073
7649, 461.073
7650, 461.073
7651, 461.073
7652, 461.073
7653, 461.073
7654, 461.073
7655, 461.073
7656, 461.073
7657, 461.073
7658, 461.073
7659, 461.073
7660, 461.073
7661, 461.073
7662, 461.073
7663, 461.073
7664, 461.073
7665, 461.073
7666, 461.073
7667, 461.073
7668, 461.073
7669, 461.073
7670, 461.073
7671, 461.073
7672, 461.073
7673, 461.073
7674, 461.073
7675, 461.073
7676, 461.073
7677, 461.073
7678, 461.073
7679, 461.073
7680, 461.073
7681, 461.073
7682, 461.073
7683, 461.073
7684, 461.073
7685, 461.073
7686, 461.073
7687, 461.073
7688, 461.073
7689, 461.073
7690, 461.073
7691, 461.073
7692, 461.073
7693, 461.073
7694, 461.073
7695, 461.073
7696, 461.073
7697, 461.073
7698, 461.073
7699, 461.073
7700, 461.073
7701, 461.073
7702, 461.073
7703, 461.073
7704, 461.073
7705, 461.073
7706, 461.073
7707, 461.073
7708, 461.073
7709, 461.073
7710, 461.073
7711, 461.073
7712, 461.073
7713, 461.073
7714, 461.073
7715, 461.073
7716, 461.073
7717, 461.073
7718, 461.073
7719, 461.073
7720, 461.073
7721, 461.073
7722, 461.073
7723, 461.073
7724, 461.073
7725, 461.073
7726, 461.073
7727, 461.073
7728, 461.073
7729, 461.073
7730, 461.073
7731, 461.073
7732, 461.073
7733, 461.073
7734, 461.073
7735, 461.073
7736, 461.073
7737, 461.073
7738, 461.073
7739, 461.073
7740, 461.073
7741, 461.073
7742, 461.073
7743, 461.073
7744, 461.073
7745, 461.073
7746, 461.073
7747, 461.073
7748, 461.073
7749, 461.073
7750, 461.073
7751, 461.073
7752, 461.073
7753, 461.073
7754, 461.073
7755, 461.073
7756, 461.073
7757, 461.073
7758, 461.073
7759, 461.073
7760, 461.073
7761, 461.073
7762, 461.073
7763, 461.073
7764, 461.073
7765, 461.073
7766, 461.073
7767, 461.073
7768, 461.073
7769, 461.073
7770, 461.073
7771, 461.073
7772, 461.073
7773, 461.073
7774, 461.073
7775, 461.073
7776, 461.073
7777, 461.073
7778, 461.073
7779, 461.073
7780, 461.073
7781, 461.073
7782, 461.073
7783, 461.073
7784, 461.073
7785, 461.073
7786, 461.073
7787, 461.073
7788, 461.073
7789, 461.073
7790, 461.073
7791, 461.073
7792, 461.073
7793, 461.073
7794, 461.073
7795, 461.073
7796, 461.073
7797, 461.073
7798, 461.073
7799, 461.073
7800, 461.073
7801, 461.073
7802, 461.073
7803, 461.073
7804, 461.073
7805, 461.073
7806, 461.073
7807, 461.073
7808, 461.073
7809, 461.073
7810, 461.073
7811, 461.073
7812, 461.073
7813, 461.073
7814, 461.073
7815, 461.073
7816, 461.073
7817, 461.073
7818, 461.073
7819, 461.073
7820, 461.073
7821, 461.073
7822, 461.073
7823, 461.073
7824, 461.073
7825, 461.073
7826, 461.073
7827, 461.073
7828, 461.073
7829, 461.073
7830, 461.073
7831, 461.073
7832, 461.073
7833, 461.073
7834, 461.073
7835, 461.073
7836, 461.073
7837, 461.073
7838, 461.073
7839, 461.073
7840, 461.073
7841, 461.073
7842, 461.073
7843, 461.073
7844, 461.073
7845, 461.073
7846, 461.073
7847, 461.073
7848, 461.073
7849, 461.073
7850, 461.073
7851, 461.073
7852, 461.073
7853, 461.073
7854, 461.073
7855, 461.073
7856, 461.073
7857, 461.073
7858, 461.073
7859, 461.073
7860, 461.073
7861, 461.073
7862, 461.073
7863, 461.073
7864, 461.073
7865, 461.073
7866, 461.073
7867, 461.073
7868, 461.073
7869, 461.073
7870, 461.073
7871, 461.073
7872, 461.073
7873, 461.073
7874, 461.073
7875, 461.073
7876, 461.073
7877, 461.073
7878, 461.073
7879, 461.073
7880, 461.073
7881, 461.073
7882, 461.073
7883, 461.073
7884, 461.073
7885, 461.073
7886, 461.073
7887, 461.073
7888, 461.073
7889, 461.073
7890, 461.073
7891, 461.073
7892, 461.073
7893, 461.073
7894, 461.073
7895, 461.073
7896, 461.073
7897, 461.073
7898, 461.073
7899, 461.073
7900, 461.073
7901, 461.073
7902, 461.073
7903, 461.073
7904, 461.073
7905, 461.073
7906, 461.073
7907, 461.073
7908, 461.073
7909, 461.073
7910, 461.073
7911, 461.073
7912, 461.073
7913, 461.073
7914, 461.073
7915, 461.073
7916, 461.073
7917, 461.073
7918, 461.073
7919, 461.073
7920, 461.073
7921, 461.073
7922, 461.073
7923, 461.073
7924, 461.073
7925, 461.073
7926, 461.073
7927, 461.073
7928, 461.073
7929, 461.073
7930, 461.073
7931, 461.073
7932, 461.073
7933, 461.073
7934, 461.073
7935, 461.073
7936, 461.073
7937, 461.073
7938, 461.073
7939, 461.073
7940, 461.073
7941, 461.073
7942, 461.073
7943, 461.073
7944, 461.073
7945, 461.073
7946, 461.073
7947, 461.073
7948, 461.073
7949, 461.073
7950, 461.073
7951, 461.073
7952, 461.073
7953, 461.073
7954, 461.073
7955, 461.073
7956, 461.073
7957, 461.073
7958, 461.073
7959, 461.073
7960, 461.073
7961, 461.073
7962, 461.073
7963, 461.073
7964, 461.073
7965, 461.073
7966, 461.073
7967, 461.073
7968, 461.073
7969, 461.073
7970, 461.073
7971, 461.073
7972, 461.073
7973, 461.073
7974, 461.073
7975, 461.073
7976, 461.073
7977, 461.073
7978, 461.073
7979, 461.073
7980, 461.073
7981, 461.073
7982, 461.073
7983, 461.073
7984, 461.073
7985, 461.073
7986, 461.073
7987, 461.073
7988, 461.073
7989, 461.073
7990, 461.073
7991, 461.073
7992, 461.073
7993, 461.073
7994, 461.073
7995, 461.073
7996, 461.073
7997, 461.073
7998, 461.073
7999, 461.073
8000, 461.073
8001, 461.073
8002, 461.073
8003, 461.073
8004, 461.073
8005, 461.073
8006, 461.073
8007, 461.073
8008, 461.073
8009, 461.073
8010, 461.073
8011, 461.073
8012, 461.073
8013, 461.073
8014, 461.073
8015, 461.073
8016, 461.073
8017, 461.073
8018, 461.073
8019, 461.073
8020, 461.073
8021, 461.073
8022, 461.073
8023, 461.073
8024, 461.073
8025, 461.073
8026, 461.073
8027, 461.073
8028, 461.073
8029, 461.073
8030, 461.073
8031, 461.073
8032, 461.073
8033, 461.073
8034, 461.073
8035, 461.073
8036, 461.073
8037, 461.073
8038, 461.073
8039, 461.073
8040, 461.073
8041, 461.073
8042, 461.073
8043, 461.073
8044, 461.073
8045, 461.073
8046, 461.073
8047, 461.073
8048, 461.073
8049, 461.073
8050, 461.073
8051, 461.073
8052, 461.073
8053, 461.073
8054, 461.073
8055, 461.073
8056, 461.073
8057, 461.073
8058, 461.073
8059, 461.073
8060, 461.073
8061, 461.073
8062, 461.073
8063, 461.073
8064, 461.073
8065, 461.073
8066, 461.073
8067, 461.073
8068, 461.073
8069, 461.073
8070, 461.073
8071, 461.073
8072, 461.073
8073, 461.073
8074, 461.073
8075, 461.073
8076, 461.073
8077, 461.073
8078, 461.073
8079, 461.073
8080, 461.073
8081, 461.073
8082, 461.073
8083, 461.073
8084, 461.073
8085, 461.073
8086, 461.073
8087, 461.073
8088, 461.073
8089, 461.073
8090, 461.073
8091, 461.073
8092, 461.073
8093, 461.073
8094, 461.073
8095, 461.073
8096, 461.073
8097, 461.073
8098, 461.073
8099, 461.073
8100, 461.073
8101, 461.073
8102, 461.073
8103, 461.073
8104, 461.073
8105, 461.073
8106, 461.073
8107, 461.073
8108, 461.073
8109, 461.073
8110, 461.073
8111, 461.073
8112, 461.073
8113, 461.073
8114, 461.073
8115, 461.073
8116, 461.073
8117, 461.073
8118, 461.073
8119, 461.073
8120, 461.073
8121, 461.073
8122, 461.073
8123, 461.073
8124, 461.073
8125, 461.073
8126, 461.073
8127, 461.073
8128, 461.073
8129, 461.073
8130, 461.073
8131, 461.073
8132, 461.073
8133, 461.073
8134, 461.073
8135, 461.073
8136, 461.073
8137, 461.073
8138, 461.073
8139, 461.073
8140, 461.073
8141, 461.073
8142, 461.073
8143, 461.073
8144, 461.073
8145, 461.073
8146, 461.073
8147, 461.073
8148, 461.073
8149, 461.073
8150, 461.073
8151, 461.073
8152, 461.073
8153, 461.073
8154, 461.073
8155, 461.073
8156, 461.073
8157, 461.073
8158, 461.073
8159, 461.073
8160, 461.073
8161, 461.073
8162, 461.073
8163, 461.073
8164, 461.073
8165, 461.073
8166, 461.073
8167, 461.073
8168, 461.073
8169, 461.073
8170, 461.073
8171, 461.073
8172, 461.073
8173, 461.073
8174, 461.073
8175, 461.073
8176, 461.073
8177, 461.073
8178, 461.073
8179, 461.073
8180, 461.073
8181, 461.073
8182, 461.073
8183, 461.073
8184, 461.073
8185, 461.073
8186, 461.073
8187, 461.073
8188, 461.073
8189, 461.073
8190, 461.073
8191, 461.073
8192, 461.073
8193, 461.073
8194, 461.073
8195, 461.073
8196, 461.073
8197, 461.073
8198, 461.073
8199, 461.073
8200, 461.073
8201, 461.073
8202, 461.073
8203, 461.073
8204, 461.073
*NODE FILE
U
*EL FILE
S
*EL PRINT, ELSET=DISC
S
*END STEP
