*HEADING
jetsuite2 turbine disc, axisymmetric (X = radius, Y = axis), SI units
*NODE
1, 5.0000000e-04, 1.8073542e-01, 0.0
2, 1.0000000e-03, 1.8073542e-01, 0.0
3, 1.0000000e-03, 1.8123542e-01, 0.0
4, 5.0000000e-04, 1.8123542e-01, 0.0
5, 1.5000000e-03, 1.8073542e-01, 0.0
6, 1.5000000e-03, 1.8123542e-01, 0.0
7, 2.0000000e-03, 1.8073542e-01, 0.0
8, 2.0000000e-03, 1.8123542e-01, 0.0
9, 2.5000000e-03, 1.8073542e-01, 0.0
10, 2.5000000e-03, 1.8123542e-01, 0.0
11, 3.0000000e-03, 1.8073542e-01, 0.0
12, 3.0000000e-03, 1.8123542e-01, 0.0
13, 3.5000000e-03, 1.8073542e-01, 0.0
14, 3.5000000e-03, 1.8123542e-01, 0.0
15, 4.0000000e-03, 1.8073542e-01, 0.0
16, 4.0000000e-03, 1.8123542e-01, 0.0
17, 4.5000000e-03, 1.8073542e-01, 0.0
18, 4.5000000e-03, 1.8123542e-01, 0.0
19, 5.0000000e-03, 1.8073542e-01, 0.0
20, 5.0000000e-03, 1.8123542e-01, 0.0
21, 5.5000000e-03, 1.8073542e-01, 0.0
22, 5.5000000e-03, 1.8123542e-01, 0.0
23, 6.0000000e-03, 1.8073542e-01, 0.0
24, 6.0000000e-03, 1.8123542e-01, 0.0
25, 6.5000000e-03, 1.8073542e-01, 0.0
26, 6.5000000e-03, 1.8123542e-01, 0.0
27, 7.0000000e-03, 1.8073542e-01, 0.0
28, 7.0000000e-03, 1.8123542e-01, 0.0
29, 7.5000000e-03, 1.8073542e-01, 0.0
30, 7.5000000e-03, 1.8123542e-01, 0.0
31, 8.0000000e-03, 1.8073542e-01, 0.0
32, 8.0000000e-03, 1.8123542e-01, 0.0
33, 8.5000000e-03, 1.8073542e-01, 0.0
34, 8.5000000e-03, 1.8123542e-01, 0.0
35, 9.0000000e-03, 1.8073542e-01, 0.0
36, 9.0000000e-03, 1.8123542e-01, 0.0
37, 9.5000000e-03, 1.8073542e-01, 0.0
38, 9.5000000e-03, 1.8123542e-01, 0.0
39, 1.0000000e-02, 1.8073542e-01, 0.0
40, 1.0000000e-02, 1.8123542e-01, 0.0
41, 1.0500000e-02, 1.8073542e-01, 0.0
42, 1.0500000e-02, 1.8123542e-01, 0.0
43, 1.1000000e-02, 1.8073542e-01, 0.0
44, 1.1000000e-02, 1.8123542e-01, 0.0
45, 1.1500000e-02, 1.8073542e-01, 0.0
46, 1.1500000e-02, 1.8123542e-01, 0.0
47, 1.2000000e-02, 1.8073542e-01, 0.0
48, 1.2000000e-02, 1.8123542e-01, 0.0
49, 1.2500000e-02, 1.8073542e-01, 0.0
50, 1.2500000e-02, 1.8123542e-01, 0.0
51, 1.3000000e-02, 1.8073542e-01, 0.0
52, 1.3000000e-02, 1.8123542e-01, 0.0
53, 1.3353586e-02, 1.8073542e-01, 0.0
54, 1.3353586e-02, 1.8123542e-01, 0.0
55, 1.0000000e-03, 1.8173542e-01, 0.0
56, 5.0000000e-04, 1.8173542e-01, 0.0
57, 1.5000000e-03, 1.8173542e-01, 0.0
58, 2.0000000e-03, 1.8173542e-01, 0.0
59, 2.5000000e-03, 1.8173542e-01, 0.0
60, 3.0000000e-03, 1.8173542e-01, 0.0
61, 3.5000000e-03, 1.8173542e-01, 0.0
62, 4.0000000e-03, 1.8173542e-01, 0.0
63, 4.5000000e-03, 1.8173542e-01, 0.0
64, 5.0000000e-03, 1.8173542e-01, 0.0
65, 5.5000000e-03, 1.8173542e-01, 0.0
66, 6.0000000e-03, 1.8173542e-01, 0.0
67, 6.5000000e-03, 1.8173542e-01, 0.0
68, 7.0000000e-03, 1.8173542e-01, 0.0
69, 7.5000000e-03, 1.8173542e-01, 0.0
70, 8.0000000e-03, 1.8173542e-01, 0.0
71, 8.5000000e-03, 1.8173542e-01, 0.0
72, 9.0000000e-03, 1.8173542e-01, 0.0
73, 9.5000000e-03, 1.8173542e-01, 0.0
74, 1.0000000e-02, 1.8173542e-01, 0.0
75, 1.0500000e-02, 1.8173542e-01, 0.0
76, 1.1000000e-02, 1.8173542e-01, 0.0
77, 1.1500000e-02, 1.8173542e-01, 0.0
78, 1.2000000e-02, 1.8173542e-01, 0.0
79, 1.2500000e-02, 1.8173542e-01, 0.0
80, 1.3000000e-02, 1.8173542e-01, 0.0
81, 1.3353586e-02, 1.8173542e-01, 0.0
82, 1.0000000e-03, 1.8223542e-01, 0.0
83, 5.0000000e-04, 1.8223542e-01, 0.0
84, 1.5000000e-03, 1.8223542e-01, 0.0
85, 2.0000000e-03, 1.8223542e-01, 0.0
86, 2.5000000e-03, 1.8223542e-01, 0.0
87, 3.0000000e-03, 1.8223542e-01, 0.0
88, 3.5000000e-03, 1.8223542e-01, 0.0
89, 4.0000000e-03, 1.8223542e-01, 0.0
90, 4.5000000e-03, 1.8223542e-01, 0.0
91, 5.0000000e-03, 1.8223542e-01, 0.0
92, 5.5000000e-03, 1.8223542e-01, 0.0
93, 6.0000000e-03, 1.8223542e-01, 0.0
94, 6.5000000e-03, 1.8223542e-01, 0.0
95, 7.0000000e-03, 1.8223542e-01, 0.0
96, 7.5000000e-03, 1.8223542e-01, 0.0
97, 8.0000000e-03, 1.8223542e-01, 0.0
98, 8.5000000e-03, 1.8223542e-01, 0.0
99, 9.0000000e-03, 1.8223542e-01, 0.0
100, 9.5000000e-03, 1.8223542e-01, 0.0
101, 1.0000000e-02, 1.8223542e-01, 0.0
102, 1.0500000e-02, 1.8223542e-01, 0.0
103, 1.1000000e-02, 1.8223542e-01, 0.0
104, 1.1500000e-02, 1.8223542e-01, 0.0
105, 1.2000000e-02, 1.8223542e-01, 0.0
106, 1.2500000e-02, 1.8223542e-01, 0.0
107, 1.3000000e-02, 1.8223542e-01, 0.0
108, 1.3353586e-02, 1.8223542e-01, 0.0
109, 1.3500000e-02, 1.8173542e-01, 0.0
110, 1.3500000e-02, 1.8223542e-01, 0.0
111, 1.0000000e-03, 1.8273542e-01, 0.0
112, 5.0000000e-04, 1.8273542e-01, 0.0
113, 1.5000000e-03, 1.8273542e-01, 0.0
114, 2.0000000e-03, 1.8273542e-01, 0.0
115, 2.5000000e-03, 1.8273542e-01, 0.0
116, 3.0000000e-03, 1.8273542e-01, 0.0
117, 3.5000000e-03, 1.8273542e-01, 0.0
118, 4.0000000e-03, 1.8273542e-01, 0.0
119, 4.5000000e-03, 1.8273542e-01, 0.0
120, 5.0000000e-03, 1.8273542e-01, 0.0
121, 5.5000000e-03, 1.8273542e-01, 0.0
122, 6.0000000e-03, 1.8273542e-01, 0.0
123, 6.5000000e-03, 1.8273542e-01, 0.0
124, 7.0000000e-03, 1.8273542e-01, 0.0
125, 7.5000000e-03, 1.8273542e-01, 0.0
126, 8.0000000e-03, 1.8273542e-01, 0.0
127, 8.5000000e-03, 1.8273542e-01, 0.0
128, 9.0000000e-03, 1.8273542e-01, 0.0
129, 9.5000000e-03, 1.8273542e-01, 0.0
130, 1.0000000e-02, 1.8273542e-01, 0.0
131, 1.0500000e-02, 1.8273542e-01, 0.0
132, 1.1000000e-02, 1.8273542e-01, 0.0
133, 1.1500000e-02, 1.8273542e-01, 0.0
134, 1.2000000e-02, 1.8273542e-01, 0.0
135, 1.2500000e-02, 1.8273542e-01, 0.0
136, 1.3000000e-02, 1.8273542e-01, 0.0
137, 1.3353586e-02, 1.8273542e-01, 0.0
138, 1.3500000e-02, 1.8273542e-01, 0.0
139, 1.0000000e-03, 1.8323542e-01, 0.0
140, 5.0000000e-04, 1.8323542e-01, 0.0
141, 1.5000000e-03, 1.8323542e-01, 0.0
142, 2.0000000e-03, 1.8323542e-01, 0.0
143, 2.5000000e-03, 1.8323542e-01, 0.0
144, 3.0000000e-03, 1.8323542e-01, 0.0
145, 3.5000000e-03, 1.8323542e-01, 0.0
146, 4.0000000e-03, 1.8323542e-01, 0.0
147, 4.5000000e-03, 1.8323542e-01, 0.0
148, 5.0000000e-03, 1.8323542e-01, 0.0
149, 5.5000000e-03, 1.8323542e-01, 0.0
150, 6.0000000e-03, 1.8323542e-01, 0.0
151, 6.5000000e-03, 1.8323542e-01, 0.0
152, 7.0000000e-03, 1.8323542e-01, 0.0
153, 7.5000000e-03, 1.8323542e-01, 0.0
154, 8.0000000e-03, 1.8323542e-01, 0.0
155, 8.5000000e-03, 1.8323542e-01, 0.0
156, 9.0000000e-03, 1.8323542e-01, 0.0
157, 9.5000000e-03, 1.8323542e-01, 0.0
158, 1.0000000e-02, 1.8323542e-01, 0.0
159, 1.0500000e-02, 1.8323542e-01, 0.0
160, 1.1000000e-02, 1.8323542e-01, 0.0
161, 1.1500000e-02, 1.8323542e-01, 0.0
162, 1.2000000e-02, 1.8323542e-01, 0.0
163, 1.2500000e-02, 1.8323542e-01, 0.0
164, 1.3000000e-02, 1.8323542e-01, 0.0
165, 1.3353586e-02, 1.8323542e-01, 0.0
166, 1.3500000e-02, 1.8323542e-01, 0.0
167, 1.0000000e-03, 1.8373542e-01, 0.0
168, 5.0000000e-04, 1.8373542e-01, 0.0
169, 1.5000000e-03, 1.8373542e-01, 0.0
170, 2.0000000e-03, 1.8373542e-01, 0.0
171, 2.5000000e-03, 1.8373542e-01, 0.0
172, 3.0000000e-03, 1.8373542e-01, 0.0
173, 3.5000000e-03, 1.8373542e-01, 0.0
174, 4.0000000e-03, 1.8373542e-01, 0.0
175, 4.5000000e-03, 1.8373542e-01, 0.0
176, 5.0000000e-03, 1.8373542e-01, 0.0
177, 5.5000000e-03, 1.8373542e-01, 0.0
178, 6.0000000e-03, 1.8373542e-01, 0.0
179, 6.5000000e-03, 1.8373542e-01, 0.0
180, 7.0000000e-03, 1.8373542e-01, 0.0
181, 7.5000000e-03, 1.8373542e-01, 0.0
182, 8.0000000e-03, 1.8373542e-01, 0.0
183, 8.5000000e-03, 1.8373542e-01, 0.0
184, 9.0000000e-03, 1.8373542e-01, 0.0
185, 9.5000000e-03, 1.8373542e-01, 0.0
186, 1.0000000e-02, 1.8373542e-01, 0.0
187, 1.0500000e-02, 1.8373542e-01, 0.0
188, 1.1000000e-02, 1.8373542e-01, 0.0
189, 1.1500000e-02, 1.8373542e-01, 0.0
190, 1.2000000e-02, 1.8373542e-01, 0.0
191, 1.2500000e-02, 1.8373542e-01, 0.0
192, 1.3000000e-02, 1.8373542e-01, 0.0
193, 1.3353586e-02, 1.8373542e-01, 0.0
194, 1.3500000e-02, 1.8373542e-01, 0.0
195, 1.0000000e-03, 1.8423542e-01, 0.0
196, 5.0000000e-04, 1.8423542e-01, 0.0
197, 1.5000000e-03, 1.8423542e-01, 0.0
198, 2.0000000e-03, 1.8423542e-01, 0.0
199, 2.5000000e-03, 1.8423542e-01, 0.0
200, 3.0000000e-03, 1.8423542e-01, 0.0
201, 3.5000000e-03, 1.8423542e-01, 0.0
202, 4.0000000e-03, 1.8423542e-01, 0.0
203, 4.5000000e-03, 1.8423542e-01, 0.0
204, 5.0000000e-03, 1.8423542e-01, 0.0
205, 5.5000000e-03, 1.8423542e-01, 0.0
206, 6.0000000e-03, 1.8423542e-01, 0.0
207, 6.5000000e-03, 1.8423542e-01, 0.0
208, 7.0000000e-03, 1.8423542e-01, 0.0
209, 7.5000000e-03, 1.8423542e-01, 0.0
210, 8.0000000e-03, 1.8423542e-01, 0.0
211, 8.5000000e-03, 1.8423542e-01, 0.0
212, 9.0000000e-03, 1.8423542e-01, 0.0
213, 9.5000000e-03, 1.8423542e-01, 0.0
214, 1.0000000e-02, 1.8423542e-01, 0.0
215, 1.0500000e-02, 1.8423542e-01, 0.0
216, 1.1000000e-02, 1.8423542e-01, 0.0
217, 1.1500000e-02, 1.8423542e-01, 0.0
218, 1.2000000e-02, 1.8423542e-01, 0.0
219, 1.2500000e-02, 1.8423542e-01, 0.0
220, 1.3000000e-02, 1.8423542e-01, 0.0
221, 1.3353586e-02, 1.8423542e-01, 0.0
222, 1.3500000e-02, 1.8423542e-01, 0.0
223, 1.0000000e-03, 1.8473542e-01, 0.0
224, 5.0000000e-04, 1.8473542e-01, 0.0
225, 1.5000000e-03, 1.8473542e-01, 0.0
226, 2.0000000e-03, 1.8473542e-01, 0.0
227, 2.5000000e-03, 1.8473542e-01, 0.0
228, 3.0000000e-03, 1.8473542e-01, 0.0
229, 3.5000000e-03, 1.8473542e-01, 0.0
230, 4.0000000e-03, 1.8473542e-01, 0.0
231, 4.5000000e-03, 1.8473542e-01, 0.0
232, 5.0000000e-03, 1.8473542e-01, 0.0
233, 5.5000000e-03, 1.8473542e-01, 0.0
234, 6.0000000e-03, 1.8473542e-01, 0.0
235, 6.5000000e-03, 1.8473542e-01, 0.0
236, 7.0000000e-03, 1.8473542e-01, 0.0
237, 7.5000000e-03, 1.8473542e-01, 0.0
238, 8.0000000e-03, 1.8473542e-01, 0.0
239, 8.5000000e-03, 1.8473542e-01, 0.0
240, 9.0000000e-03, 1.8473542e-01, 0.0
241, 9.5000000e-03, 1.8473542e-01, 0.0
242, 1.0000000e-02, 1.8473542e-01, 0.0
243, 1.0500000e-02, 1.8473542e-01, 0.0
244, 1.1000000e-02, 1.8473542e-01, 0.0
245, 1.1500000e-02, 1.8473542e-01, 0.0
246, 1.2000000e-02, 1.8473542e-01, 0.0
247, 1.2500000e-02, 1.8473542e-01, 0.0
248, 1.3000000e-02, 1.8473542e-01, 0.0
249, 1.3353586e-02, 1.8473542e-01, 0.0
250, 1.3500000e-02, 1.8473542e-01, 0.0
251, 1.0000000e-03, 1.8523542e-01, 0.0
252, 5.0000000e-04, 1.8523542e-01, 0.0
253, 1.5000000e-03, 1.8523542e-01, 0.0
254, 2.0000000e-03, 1.8523542e-01, 0.0
255, 2.5000000e-03, 1.8523542e-01, 0.0
256, 3.0000000e-03, 1.8523542e-01, 0.0
257, 3.5000000e-03, 1.8523542e-01, 0.0
258, 4.0000000e-03, 1.8523542e-01, 0.0
259, 4.5000000e-03, 1.8523542e-01, 0.0
260, 5.0000000e-03, 1.8523542e-01, 0.0
261, 5.5000000e-03, 1.8523542e-01, 0.0
262, 6.0000000e-03, 1.8523542e-01, 0.0
263, 6.5000000e-03, 1.8523542e-01, 0.0
264, 7.0000000e-03, 1.8523542e-01, 0.0
265, 7.5000000e-03, 1.8523542e-01, 0.0
266, 8.0000000e-03, 1.8523542e-01, 0.0
267, 8.5000000e-03, 1.8523542e-01, 0.0
268, 9.0000000e-03, 1.8523542e-01, 0.0
269, 9.5000000e-03, 1.8523542e-01, 0.0
270, 1.0000000e-02, 1.8523542e-01, 0.0
271, 1.0500000e-02, 1.8523542e-01, 0.0
272, 1.1000000e-02, 1.8523542e-01, 0.0
273, 1.1500000e-02, 1.8523542e-01, 0.0
274, 1.2000000e-02, 1.8523542e-01, 0.0
275, 1.2500000e-02, 1.8523542e-01, 0.0
276, 1.3000000e-02, 1.8523542e-01, 0.0
277, 1.3353586e-02, 1.8523542e-01, 0.0
278, 1.3500000e-02, 1.8523542e-01, 0.0
279, 1.0000000e-03, 1.8573542e-01, 0.0
280, 5.0000000e-04, 1.8573542e-01, 0.0
281, 1.5000000e-03, 1.8573542e-01, 0.0
282, 2.0000000e-03, 1.8573542e-01, 0.0
283, 2.5000000e-03, 1.8573542e-01, 0.0
284, 3.0000000e-03, 1.8573542e-01, 0.0
285, 3.5000000e-03, 1.8573542e-01, 0.0
286, 4.0000000e-03, 1.8573542e-01, 0.0
287, 4.5000000e-03, 1.8573542e-01, 0.0
288, 5.0000000e-03, 1.8573542e-01, 0.0
289, 5.5000000e-03, 1.8573542e-01, 0.0
290, 6.0000000e-03, 1.8573542e-01, 0.0
291, 6.5000000e-03, 1.8573542e-01, 0.0
292, 7.0000000e-03, 1.8573542e-01, 0.0
293, 7.5000000e-03, 1.8573542e-01, 0.0
294, 8.0000000e-03, 1.8573542e-01, 0.0
295, 8.5000000e-03, 1.8573542e-01, 0.0
296, 9.0000000e-03, 1.8573542e-01, 0.0
297, 9.5000000e-03, 1.8573542e-01, 0.0
298, 1.0000000e-02, 1.8573542e-01, 0.0
299, 1.0500000e-02, 1.8573542e-01, 0.0
300, 1.1000000e-02, 1.8573542e-01, 0.0
301, 1.1500000e-02, 1.8573542e-01, 0.0
302, 1.2000000e-02, 1.8573542e-01, 0.0
303, 1.2500000e-02, 1.8573542e-01, 0.0
304, 1.3000000e-02, 1.8573542e-01, 0.0
305, 1.3353586e-02, 1.8573542e-01, 0.0
306, 1.3500000e-02, 1.8573542e-01, 0.0
307, 1.0000000e-03, 1.8623542e-01, 0.0
308, 5.0000000e-04, 1.8623542e-01, 0.0
309, 1.5000000e-03, 1.8623542e-01, 0.0
310, 2.0000000e-03, 1.8623542e-01, 0.0
311, 2.5000000e-03, 1.8623542e-01, 0.0
312, 3.0000000e-03, 1.8623542e-01, 0.0
313, 3.5000000e-03, 1.8623542e-01, 0.0
314, 4.0000000e-03, 1.8623542e-01, 0.0
315, 4.5000000e-03, 1.8623542e-01, 0.0
316, 5.0000000e-03, 1.8623542e-01, 0.0
317, 5.5000000e-03, 1.8623542e-01, 0.0
318, 6.0000000e-03, 1.8623542e-01, 0.0
319, 6.5000000e-03, 1.8623542e-01, 0.0
320, 7.0000000e-03, 1.8623542e-01, 0.0
321, 7.5000000e-03, 1.8623542e-01, 0.0
322, 8.0000000e-03, 1.8623542e-01, 0.0
323, 8.5000000e-03, 1.8623542e-01, 0.0
324, 9.0000000e-03, 1.8623542e-01, 0.0
325, 9.5000000e-03, 1.8623542e-01, 0.0
326, 1.0000000e-02, 1.8623542e-01, 0.0
327, 1.0500000e-02, 1.8623542e-01, 0.0
328, 1.1000000e-02, 1.8623542e-01, 0.0
329, 1.1500000e-02, 1.8623542e-01, 0.0
330, 1.2000000e-02, 1.8623542e-01, 0.0
331, 1.2500000e-02, 1.8623542e-01, 0.0
332, 1.3000000e-02, 1.8623542e-01, 0.0
333, 1.3353586e-02, 1.8623542e-01, 0.0
334, 1.3500000e-02, 1.8623542e-01, 0.0
335, 1.4000000e-02, 1.8573542e-01, 0.0
336, 1.4000000e-02, 1.8623542e-01, 0.0
337, 1.0000000e-03, 1.8673542e-01, 0.0
338, 5.0000000e-04, 1.8673542e-01, 0.0
339, 1.5000000e-03, 1.8673542e-01, 0.0
340, 2.0000000e-03, 1.8673542e-01, 0.0
341, 2.5000000e-03, 1.8673542e-01, 0.0
342, 3.0000000e-03, 1.8673542e-01, 0.0
343, 3.5000000e-03, 1.8673542e-01, 0.0
344, 4.0000000e-03, 1.8673542e-01, 0.0
345, 4.5000000e-03, 1.8673542e-01, 0.0
346, 5.0000000e-03, 1.8673542e-01, 0.0
347, 5.5000000e-03, 1.8673542e-01, 0.0
348, 6.0000000e-03, 1.8673542e-01, 0.0
349, 6.5000000e-03, 1.8673542e-01, 0.0
350, 7.0000000e-03, 1.8673542e-01, 0.0
351, 7.5000000e-03, 1.8673542e-01, 0.0
352, 8.0000000e-03, 1.8673542e-01, 0.0
353, 8.5000000e-03, 1.8673542e-01, 0.0
354, 9.0000000e-03, 1.8673542e-01, 0.0
355, 9.5000000e-03, 1.8673542e-01, 0.0
356, 1.0000000e-02, 1.8673542e-01, 0.0
357, 1.0500000e-02, 1.8673542e-01, 0.0
358, 1.1000000e-02, 1.8673542e-01, 0.0
359, 1.1500000e-02, 1.8673542e-01, 0.0
360, 1.2000000e-02, 1.8673542e-01, 0.0
361, 1.2500000e-02, 1.8673542e-01, 0.0
362, 1.3000000e-02, 1.8673542e-01, 0.0
363, 1.3353586e-02, 1.8673542e-01, 0.0
364, 1.3500000e-02, 1.8673542e-01, 0.0
365, 1.4000000e-02, 1.8673542e-01, 0.0
366, 1.0000000e-03, 1.8723542e-01, 0.0
367, 5.0000000e-04, 1.8723542e-01, 0.0
368, 1.5000000e-03, 1.8723542e-01, 0.0
369, 2.0000000e-03, 1.8723542e-01, 0.0
370, 2.5000000e-03, 1.8723542e-01, 0.0
371, 3.0000000e-03, 1.8723542e-01, 0.0
372, 3.5000000e-03, 1.8723542e-01, 0.0
373, 4.0000000e-03, 1.8723542e-01, 0.0
374, 4.5000000e-03, 1.8723542e-01, 0.0
375, 5.0000000e-03, 1.8723542e-01, 0.0
376, 5.5000000e-03, 1.8723542e-01, 0.0
377, 6.0000000e-03, 1.8723542e-01, 0.0
378, 6.5000000e-03, 1.8723542e-01, 0.0
379, 7.0000000e-03, 1.8723542e-01, 0.0
380, 7.5000000e-03, 1.8723542e-01, 0.0
381, 8.0000000e-03, 1.8723542e-01, 0.0
382, 8.5000000e-03, 1.8723542e-01, 0.0
383, 9.0000000e-03, 1.8723542e-01, 0.0
384, 9.5000000e-03, 1.8723542e-01, 0.0
385, 1.0000000e-02, 1.8723542e-01, 0.0
386, 1.0500000e-02, 1.8723542e-01, 0.0
387, 1.1000000e-02, 1.8723542e-01, 0.0
388, 1.1500000e-02, 1.8723542e-01, 0.0
389, 1.2000000e-02, 1.8723542e-01, 0.0
390, 1.2500000e-02, 1.8723542e-01, 0.0
391, 1.3000000e-02, 1.8723542e-01, 0.0
392, 1.3353586e-02, 1.8723542e-01, 0.0
393, 1.3500000e-02, 1.8723542e-01, 0.0
394, 1.4000000e-02, 1.8723542e-01, 0.0
395, 1.0000000e-03, 1.8773542e-01, 0.0
396, 5.0000000e-04, 1.8773542e-01, 0.0
397, 1.5000000e-03, 1.8773542e-01, 0.0
398, 2.0000000e-03, 1.8773542e-01, 0.0
399, 2.5000000e-03, 1.8773542e-01, 0.0
400, 3.0000000e-03, 1.8773542e-01, 0.0
401, 3.5000000e-03, 1.8773542e-01, 0.0
402, 4.0000000e-03, 1.8773542e-01, 0.0
403, 4.5000000e-03, 1.8773542e-01, 0.0
404, 5.0000000e-03, 1.8773542e-01, 0.0
405, 5.5000000e-03, 1.8773542e-01, 0.0
406, 6.0000000e-03, 1.8773542e-01, 0.0
407, 6.5000000e-03, 1.8773542e-01, 0.0
408, 7.0000000e-03, 1.8773542e-01, 0.0
409, 7.5000000e-03, 1.8773542e-01, 0.0
410, 8.0000000e-03, 1.8773542e-01, 0.0
411, 8.5000000e-03, 1.8773542e-01, 0.0
412, 9.0000000e-03, 1.8773542e-01, 0.0
413, 9.5000000e-03, 1.8773542e-01, 0.0
414, 1.0000000e-02, 1.8773542e-01, 0.0
415, 1.0500000e-02, 1.8773542e-01, 0.0
416, 1.1000000e-02, 1.8773542e-01, 0.0
417, 1.1500000e-02, 1.8773542e-01, 0.0
418, 1.2000000e-02, 1.8773542e-01, 0.0
419, 1.2500000e-02, 1.8773542e-01, 0.0
420, 1.3000000e-02, 1.8773542e-01, 0.0
421, 1.3353586e-02, 1.8773542e-01, 0.0
422, 1.3500000e-02, 1.8773542e-01, 0.0
423, 1.4000000e-02, 1.8773542e-01, 0.0
424, 1.0000000e-03, 1.8823542e-01, 0.0
425, 5.0000000e-04, 1.8823542e-01, 0.0
426, 1.5000000e-03, 1.8823542e-01, 0.0
427, 2.0000000e-03, 1.8823542e-01, 0.0
428, 2.5000000e-03, 1.8823542e-01, 0.0
429, 3.0000000e-03, 1.8823542e-01, 0.0
430, 3.5000000e-03, 1.8823542e-01, 0.0
431, 4.0000000e-03, 1.8823542e-01, 0.0
432, 4.5000000e-03, 1.8823542e-01, 0.0
433, 5.0000000e-03, 1.8823542e-01, 0.0
434, 5.5000000e-03, 1.8823542e-01, 0.0
435, 6.0000000e-03, 1.8823542e-01, 0.0
436, 6.5000000e-03, 1.8823542e-01, 0.0
437, 7.0000000e-03, 1.8823542e-01, 0.0
438, 7.5000000e-03, 1.8823542e-01, 0.0
439, 8.0000000e-03, 1.8823542e-01, 0.0
440, 8.5000000e-03, 1.8823542e-01, 0.0
441, 9.0000000e-03, 1.8823542e-01, 0.0
442, 9.5000000e-03, 1.8823542e-01, 0.0
443, 1.0000000e-02, 1.8823542e-01, 0.0
444, 1.0500000e-02, 1.8823542e-01, 0.0
445, 1.1000000e-02, 1.8823542e-01, 0.0
446, 1.1500000e-02, 1.8823542e-01, 0.0
447, 1.2000000e-02, 1.8823542e-01, 0.0
448, 1.2500000e-02, 1.8823542e-01, 0.0
449, 1.3000000e-02, 1.8823542e-01, 0.0
450, 1.3353586e-02, 1.8823542e-01, 0.0
451, 1.3500000e-02, 1.8823542e-01, 0.0
452, 1.4000000e-02, 1.8823542e-01, 0.0
453, 1.0000000e-03, 1.8873542e-01, 0.0
454, 5.0000000e-04, 1.8873542e-01, 0.0
455, 1.5000000e-03, 1.8873542e-01, 0.0
456, 2.0000000e-03, 1.8873542e-01, 0.0
457, 2.5000000e-03, 1.8873542e-01, 0.0
458, 3.0000000e-03, 1.8873542e-01, 0.0
459, 3.5000000e-03, 1.8873542e-01, 0.0
460, 4.0000000e-03, 1.8873542e-01, 0.0
461, 4.5000000e-03, 1.8873542e-01, 0.0
462, 5.0000000e-03, 1.8873542e-01, 0.0
463, 5.5000000e-03, 1.8873542e-01, 0.0
464, 6.0000000e-03, 1.8873542e-01, 0.0
465, 6.5000000e-03, 1.8873542e-01, 0.0
466, 7.0000000e-03, 1.8873542e-01, 0.0
467, 7.5000000e-03, 1.8873542e-01, 0.0
468, 8.0000000e-03, 1.8873542e-01, 0.0
469, 8.5000000e-03, 1.8873542e-01, 0.0
470, 9.0000000e-03, 1.8873542e-01, 0.0
471, 9.5000000e-03, 1.8873542e-01, 0.0
472, 1.0000000e-02, 1.8873542e-01, 0.0
473, 1.0500000e-02, 1.8873542e-01, 0.0
474, 1.1000000e-02, 1.8873542e-01, 0.0
475, 1.1500000e-02, 1.8873542e-01, 0.0
476, 1.2000000e-02, 1.8873542e-01, 0.0
477, 1.2500000e-02, 1.8873542e-01, 0.0
478, 1.3000000e-02, 1.8873542e-01, 0.0
479, 1.3353586e-02, 1.8873542e-01, 0.0
480, 1.3500000e-02, 1.8873542e-01, 0.0
481, 1.4000000e-02, 1.8873542e-01, 0.0
482, 1.0000000e-03, 1.8923542e-01, 0.0
483, 5.0000000e-04, 1.8923542e-01, 0.0
484, 1.5000000e-03, 1.8923542e-01, 0.0
485, 2.0000000e-03, 1.8923542e-01, 0.0
486, 2.5000000e-03, 1.8923542e-01, 0.0
487, 3.0000000e-03, 1.8923542e-01, 0.0
488, 3.5000000e-03, 1.8923542e-01, 0.0
489, 4.0000000e-03, 1.8923542e-01, 0.0
490, 4.5000000e-03, 1.8923542e-01, 0.0
491, 5.0000000e-03, 1.8923542e-01, 0.0
492, 5.5000000e-03, 1.8923542e-01, 0.0
493, 6.0000000e-03, 1.8923542e-01, 0.0
494, 6.5000000e-03, 1.8923542e-01, 0.0
495, 7.0000000e-03, 1.8923542e-01, 0.0
496, 7.5000000e-03, 1.8923542e-01, 0.0
497, 8.0000000e-03, 1.8923542e-01, 0.0
498, 8.5000000e-03, 1.8923542e-01, 0.0
499, 9.0000000e-03, 1.8923542e-01, 0.0
500, 9.5000000e-03, 1.8923542e-01, 0.0
501, 1.0000000e-02, 1.8923542e-01, 0.0
502, 1.0500000e-02, 1.8923542e-01, 0.0
503, 1.1000000e-02, 1.8923542e-01, 0.0
504, 1.1500000e-02, 1.8923542e-01, 0.0
505, 1.2000000e-02, 1.8923542e-01, 0.0
506, 1.2500000e-02, 1.8923542e-01, 0.0
507, 1.3000000e-02, 1.8923542e-01, 0.0
508, 1.3353586e-02, 1.8923542e-01, 0.0
509, 1.3500000e-02, 1.8923542e-01, 0.0
510, 1.4000000e-02, 1.8923542e-01, 0.0
511, 1.0000000e-03, 1.8973542e-01, 0.0
512, 5.0000000e-04, 1.8973542e-01, 0.0
513, 1.5000000e-03, 1.8973542e-01, 0.0
514, 2.0000000e-03, 1.8973542e-01, 0.0
515, 2.5000000e-03, 1.8973542e-01, 0.0
516, 3.0000000e-03, 1.8973542e-01, 0.0
517, 3.5000000e-03, 1.8973542e-01, 0.0
518, 4.0000000e-03, 1.8973542e-01, 0.0
519, 4.5000000e-03, 1.8973542e-01, 0.0
520, 5.0000000e-03, 1.8973542e-01, 0.0
521, 5.5000000e-03, 1.8973542e-01, 0.0
522, 6.0000000e-03, 1.8973542e-01, 0.0
523, 6.5000000e-03, 1.8973542e-01, 0.0
524, 7.0000000e-03, 1.8973542e-01, 0.0
525, 7.5000000e-03, 1.8973542e-01, 0.0
526, 8.0000000e-03, 1.8973542e-01, 0.0
527, 8.5000000e-03, 1.8973542e-01, 0.0
528, 9.0000000e-03, 1.8973542e-01, 0.0
529, 9.5000000e-03, 1.8973542e-01, 0.0
530, 1.0000000e-02, 1.8973542e-01, 0.0
531, 1.0500000e-02, 1.8973542e-01, 0.0
532, 1.1000000e-02, 1.8973542e-01, 0.0
533, 1.1500000e-02, 1.8973542e-01, 0.0
534, 1.2000000e-02, 1.8973542e-01, 0.0
535, 1.2500000e-02, 1.8973542e-01, 0.0
536, 1.3000000e-02, 1.8973542e-01, 0.0
537, 1.3353586e-02, 1.8973542e-01, 0.0
538, 1.3500000e-02, 1.8973542e-01, 0.0
539, 1.4000000e-02, 1.8973542e-01, 0.0
540, 1.0000000e-03, 1.9023542e-01, 0.0
541, 5.0000000e-04, 1.9023542e-01, 0.0
542, 1.5000000e-03, 1.9023542e-01, 0.0
543, 2.0000000e-03, 1.9023542e-01, 0.0
544, 2.5000000e-03, 1.9023542e-01, 0.0
545, 3.0000000e-03, 1.9023542e-01, 0.0
546, 3.5000000e-03, 1.9023542e-01, 0.0
547, 4.0000000e-03, 1.9023542e-01, 0.0
548, 4.5000000e-03, 1.9023542e-01, 0.0
549, 5.0000000e-03, 1.9023542e-01, 0.0
550, 5.5000000e-03, 1.9023542e-01, 0.0
551, 6.0000000e-03, 1.9023542e-01, 0.0
552, 6.5000000e-03, 1.9023542e-01, 0.0
553, 7.0000000e-03, 1.9023542e-01, 0.0
554, 7.5000000e-03, 1.9023542e-01, 0.0
555, 8.0000000e-03, 1.9023542e-01, 0.0
556, 8.5000000e-03, 1.9023542e-01, 0.0
557, 9.0000000e-03, 1.9023542e-01, 0.0
558, 9.5000000e-03, 1.9023542e-01, 0.0
559, 1.0000000e-02, 1.9023542e-01, 0.0
560, 1.0500000e-02, 1.9023542e-01, 0.0
561, 1.1000000e-02, 1.9023542e-01, 0.0
562, 1.1500000e-02, 1.9023542e-01, 0.0
563, 1.2000000e-02, 1.9023542e-01, 0.0
564, 1.2500000e-02, 1.9023542e-01, 0.0
565, 1.3000000e-02, 1.9023542e-01, 0.0
566, 1.3353586e-02, 1.9023542e-01, 0.0
567, 1.3500000e-02, 1.9023542e-01, 0.0
568, 1.4000000e-02, 1.9023542e-01, 0.0
569, 1.0000000e-03, 1.9067093e-01, 0.0
570, 5.0000000e-04, 1.9067093e-01, 0.0
571, 1.5000000e-03, 1.9067093e-01, 0.0
572, 2.0000000e-03, 1.9067093e-01, 0.0
573, 2.5000000e-03, 1.9067093e-01, 0.0
574, 3.0000000e-03, 1.9067093e-01, 0.0
575, 3.5000000e-03, 1.9067093e-01, 0.0
576, 4.0000000e-03, 1.9067093e-01, 0.0
577, 4.5000000e-03, 1.9067093e-01, 0.0
578, 5.0000000e-03, 1.9067093e-01, 0.0
579, 5.5000000e-03, 1.9067093e-01, 0.0
580, 6.0000000e-03, 1.9067093e-01, 0.0
581, 6.5000000e-03, 1.9067093e-01, 0.0
582, 7.0000000e-03, 1.9067093e-01, 0.0
583, 7.5000000e-03, 1.9067093e-01, 0.0
584, 8.0000000e-03, 1.9067093e-01, 0.0
585, 8.5000000e-03, 1.9067093e-01, 0.0
586, 9.0000000e-03, 1.9067093e-01, 0.0
587, 9.5000000e-03, 1.9067093e-01, 0.0
588, 1.0000000e-02, 1.9067093e-01, 0.0
589, 1.0500000e-02, 1.9067093e-01, 0.0
590, 1.1000000e-02, 1.9067093e-01, 0.0
591, 1.1500000e-02, 1.9067093e-01, 0.0
592, 1.2000000e-02, 1.9067093e-01, 0.0
593, 1.2500000e-02, 1.9067093e-01, 0.0
594, 1.3000000e-02, 1.9067093e-01, 0.0
595, 1.3353586e-02, 1.9067093e-01, 0.0
596, 1.3500000e-02, 1.9067093e-01, 0.0
597, 1.4000000e-02, 1.9067093e-01, 0.0
598, 1.0000000e-03, 1.9073542e-01, 0.0
599, 5.0000000e-04, 1.9073542e-01, 0.0
600, 1.5000000e-03, 1.9073542e-01, 0.0
601, 2.0000000e-03, 1.9073542e-01, 0.0
602, 2.5000000e-03, 1.9073542e-01, 0.0
603, 3.0000000e-03, 1.9073542e-01, 0.0
604, 3.5000000e-03, 1.9073542e-01, 0.0
605, 4.0000000e-03, 1.9073542e-01, 0.0
606, 4.5000000e-03, 1.9073542e-01, 0.0
607, 5.0000000e-03, 1.9073542e-01, 0.0
608, 5.5000000e-03, 1.9073542e-01, 0.0
609, 6.0000000e-03, 1.9073542e-01, 0.0
610, 6.5000000e-03, 1.9073542e-01, 0.0
611, 7.0000000e-03, 1.9073542e-01, 0.0
612, 7.5000000e-03, 1.9073542e-01, 0.0
613, 8.0000000e-03, 1.9073542e-01, 0.0
614, 8.5000000e-03, 1.9073542e-01, 0.0
615, 9.0000000e-03, 1.9073542e-01, 0.0
616, 9.5000000e-03, 1.9073542e-01, 0.0
617, 1.0000000e-02, 1.9073542e-01, 0.0
618, 1.0500000e-02, 1.9073542e-01, 0.0
619, 1.1000000e-02, 1.9073542e-01, 0.0
620, 1.1500000e-02, 1.9073542e-01, 0.0
621, 1.2000000e-02, 1.9073542e-01, 0.0
622, 1.2500000e-02, 1.9073542e-01, 0.0
623, 1.3000000e-02, 1.9073542e-01, 0.0
624, 1.3353586e-02, 1.9073542e-01, 0.0
625, 1.3500000e-02, 1.9073542e-01, 0.0
626, 1.4000000e-02, 1.9073542e-01, 0.0
627, 3.2121198e-02, 1.9067093e-01, 0.0
628, 3.2500000e-02, 1.9067093e-01, 0.0
629, 3.2500000e-02, 1.9073542e-01, 0.0
630, 3.2121198e-02, 1.9073542e-01, 0.0
631, 3.3000000e-02, 1.9067093e-01, 0.0
632, 3.3000000e-02, 1.9073542e-01, 0.0
633, 3.3500000e-02, 1.9067093e-01, 0.0
634, 3.3500000e-02, 1.9073542e-01, 0.0
635, 3.4000000e-02, 1.9067093e-01, 0.0
636, 3.4000000e-02, 1.9073542e-01, 0.0
637, 3.4500000e-02, 1.9067093e-01, 0.0
638, 3.4500000e-02, 1.9073542e-01, 0.0
639, 3.4914345e-02, 1.9067093e-01, 0.0
640, 3.4914345e-02, 1.9073542e-01, 0.0
641, 1.0000000e-03, 1.9123542e-01, 0.0
642, 5.0000000e-04, 1.9123542e-01, 0.0
643, 1.5000000e-03, 1.9123542e-01, 0.0
644, 2.0000000e-03, 1.9123542e-01, 0.0
645, 2.5000000e-03, 1.9123542e-01, 0.0
646, 3.0000000e-03, 1.9123542e-01, 0.0
647, 3.5000000e-03, 1.9123542e-01, 0.0
648, 4.0000000e-03, 1.9123542e-01, 0.0
649, 4.5000000e-03, 1.9123542e-01, 0.0
650, 5.0000000e-03, 1.9123542e-01, 0.0
651, 5.5000000e-03, 1.9123542e-01, 0.0
652, 6.0000000e-03, 1.9123542e-01, 0.0
653, 6.5000000e-03, 1.9123542e-01, 0.0
654, 7.0000000e-03, 1.9123542e-01, 0.0
655, 7.5000000e-03, 1.9123542e-01, 0.0
656, 8.0000000e-03, 1.9123542e-01, 0.0
657, 8.5000000e-03, 1.9123542e-01, 0.0
658, 9.0000000e-03, 1.9123542e-01, 0.0
659, 9.5000000e-03, 1.9123542e-01, 0.0
660, 1.0000000e-02, 1.9123542e-01, 0.0
661, 1.0500000e-02, 1.9123542e-01, 0.0
662, 1.1000000e-02, 1.9123542e-01, 0.0
663, 1.1500000e-02, 1.9123542e-01, 0.0
664, 1.2000000e-02, 1.9123542e-01, 0.0
665, 1.2500000e-02, 1.9123542e-01, 0.0
666, 1.3000000e-02, 1.9123542e-01, 0.0
667, 1.3353586e-02, 1.9123542e-01, 0.0
668, 1.3500000e-02, 1.9123542e-01, 0.0
669, 1.4000000e-02, 1.9123542e-01, 0.0
670, 3.1500000e-02, 1.9073542e-01, 0.0
671, 3.2000000e-02, 1.9073542e-01, 0.0
672, 3.2000000e-02, 1.9123542e-01, 0.0
673, 3.1500000e-02, 1.9123542e-01, 0.0
674, 3.2121198e-02, 1.9123542e-01, 0.0
675, 3.2500000e-02, 1.9123542e-01, 0.0
676, 3.3000000e-02, 1.9123542e-01, 0.0
677, 3.3500000e-02, 1.9123542e-01, 0.0
678, 3.4000000e-02, 1.9123542e-01, 0.0
679, 3.4500000e-02, 1.9123542e-01, 0.0
680, 3.4914345e-02, 1.9123542e-01, 0.0
681, 1.0000000e-03, 1.9173542e-01, 0.0
682, 5.0000000e-04, 1.9173542e-01, 0.0
683, 1.5000000e-03, 1.9173542e-01, 0.0
684, 2.0000000e-03, 1.9173542e-01, 0.0
685, 2.5000000e-03, 1.9173542e-01, 0.0
686, 3.0000000e-03, 1.9173542e-01, 0.0
687, 3.5000000e-03, 1.9173542e-01, 0.0
688, 4.0000000e-03, 1.9173542e-01, 0.0
689, 4.5000000e-03, 1.9173542e-01, 0.0
690, 5.0000000e-03, 1.9173542e-01, 0.0
691, 5.5000000e-03, 1.9173542e-01, 0.0
692, 6.0000000e-03, 1.9173542e-01, 0.0
693, 6.5000000e-03, 1.9173542e-01, 0.0
694, 7.0000000e-03, 1.9173542e-01, 0.0
695, 7.5000000e-03, 1.9173542e-01, 0.0
696, 8.0000000e-03, 1.9173542e-01, 0.0
697, 8.5000000e-03, 1.9173542e-01, 0.0
698, 9.0000000e-03, 1.9173542e-01, 0.0
699, 9.5000000e-03, 1.9173542e-01, 0.0
700, 1.0000000e-02, 1.9173542e-01, 0.0
701, 1.0500000e-02, 1.9173542e-01, 0.0
702, 1.1000000e-02, 1.9173542e-01, 0.0
703, 1.1500000e-02, 1.9173542e-01, 0.0
704, 1.2000000e-02, 1.9173542e-01, 0.0
705, 1.2500000e-02, 1.9173542e-01, 0.0
706, 1.3000000e-02, 1.9173542e-01, 0.0
707, 1.3353586e-02, 1.9173542e-01, 0.0
708, 1.3500000e-02, 1.9173542e-01, 0.0
709, 1.4000000e-02, 1.9173542e-01, 0.0
710, 1.4353586e-02, 1.9123542e-01, 0.0
711, 1.4353586e-02, 1.9173542e-01, 0.0
712, 3.1000000e-02, 1.9123542e-01, 0.0
713, 3.1500000e-02, 1.9173542e-01, 0.0
714, 3.1000000e-02, 1.9173542e-01, 0.0
715, 3.2000000e-02, 1.9173542e-01, 0.0
716, 3.2121198e-02, 1.9173542e-01, 0.0
717, 3.2500000e-02, 1.9173542e-01, 0.0
718, 3.3000000e-02, 1.9173542e-01, 0.0
719, 3.3500000e-02, 1.9173542e-01, 0.0
720, 3.4000000e-02, 1.9173542e-01, 0.0
721, 3.4500000e-02, 1.9173542e-01, 0.0
722, 3.4914345e-02, 1.9173542e-01, 0.0
723, 1.0000000e-03, 1.9223542e-01, 0.0
724, 5.0000000e-04, 1.9223542e-01, 0.0
725, 1.5000000e-03, 1.9223542e-01, 0.0
726, 2.0000000e-03, 1.9223542e-01, 0.0
727, 2.5000000e-03, 1.9223542e-01, 0.0
728, 3.0000000e-03, 1.9223542e-01, 0.0
729, 3.5000000e-03, 1.9223542e-01, 0.0
730, 4.0000000e-03, 1.9223542e-01, 0.0
731, 4.5000000e-03, 1.9223542e-01, 0.0
732, 5.0000000e-03, 1.9223542e-01, 0.0
733, 5.5000000e-03, 1.9223542e-01, 0.0
734, 6.0000000e-03, 1.9223542e-01, 0.0
735, 6.5000000e-03, 1.9223542e-01, 0.0
736, 7.0000000e-03, 1.9223542e-01, 0.0
737, 7.5000000e-03, 1.9223542e-01, 0.0
738, 8.0000000e-03, 1.9223542e-01, 0.0
739, 8.5000000e-03, 1.9223542e-01, 0.0
740, 9.0000000e-03, 1.9223542e-01, 0.0
741, 9.5000000e-03, 1.9223542e-01, 0.0
742, 1.0000000e-02, 1.9223542e-01, 0.0
743, 1.0500000e-02, 1.9223542e-01, 0.0
744, 1.1000000e-02, 1.9223542e-01, 0.0
745, 1.1500000e-02, 1.9223542e-01, 0.0
746, 1.2000000e-02, 1.9223542e-01, 0.0
747, 1.2500000e-02, 1.9223542e-01, 0.0
748, 1.3000000e-02, 1.9223542e-01, 0.0
749, 1.3353586e-02, 1.9223542e-01, 0.0
750, 1.3500000e-02, 1.9223542e-01, 0.0
751, 1.4000000e-02, 1.9223542e-01, 0.0
752, 1.4353586e-02, 1.9223542e-01, 0.0
753, 3.0500000e-02, 1.9173542e-01, 0.0
754, 3.1000000e-02, 1.9223542e-01, 0.0
755, 3.0500000e-02, 1.9223542e-01, 0.0
756, 3.1500000e-02, 1.9223542e-01, 0.0
757, 3.2000000e-02, 1.9223542e-01, 0.0
758, 3.2121198e-02, 1.9223542e-01, 0.0
759, 3.2500000e-02, 1.9223542e-01, 0.0
760, 3.3000000e-02, 1.9223542e-01, 0.0
761, 3.3500000e-02, 1.9223542e-01, 0.0
762, 3.4000000e-02, 1.9223542e-01, 0.0
763, 3.4500000e-02, 1.9223542e-01, 0.0
764, 3.4914345e-02, 1.9223542e-01, 0.0
765, 1.0000000e-03, 1.9273542e-01, 0.0
766, 5.0000000e-04, 1.9273542e-01, 0.0
767, 1.5000000e-03, 1.9273542e-01, 0.0
768, 2.0000000e-03, 1.9273542e-01, 0.0
769, 2.5000000e-03, 1.9273542e-01, 0.0
770, 3.0000000e-03, 1.9273542e-01, 0.0
771, 3.5000000e-03, 1.9273542e-01, 0.0
772, 4.0000000e-03, 1.9273542e-01, 0.0
773, 4.5000000e-03, 1.9273542e-01, 0.0
774, 5.0000000e-03, 1.9273542e-01, 0.0
775, 5.5000000e-03, 1.9273542e-01, 0.0
776, 6.0000000e-03, 1.9273542e-01, 0.0
777, 6.5000000e-03, 1.9273542e-01, 0.0
778, 7.0000000e-03, 1.9273542e-01, 0.0
779, 7.5000000e-03, 1.9273542e-01, 0.0
780, 8.0000000e-03, 1.9273542e-01, 0.0
781, 8.5000000e-03, 1.9273542e-01, 0.0
782, 9.0000000e-03, 1.9273542e-01, 0.0
783, 9.5000000e-03, 1.9273542e-01, 0.0
784, 1.0000000e-02, 1.9273542e-01, 0.0
785, 1.0500000e-02, 1.9273542e-01, 0.0
786, 1.1000000e-02, 1.9273542e-01, 0.0
787, 1.1500000e-02, 1.9273542e-01, 0.0
788, 1.2000000e-02, 1.9273542e-01, 0.0
789, 1.2500000e-02, 1.9273542e-01, 0.0
790, 1.3000000e-02, 1.9273542e-01, 0.0
791, 1.3353586e-02, 1.9273542e-01, 0.0
792, 1.3500000e-02, 1.9273542e-01, 0.0
793, 1.4000000e-02, 1.9273542e-01, 0.0
794, 1.4353586e-02, 1.9273542e-01, 0.0
795, 2.9500000e-02, 1.9223542e-01, 0.0
796, 3.0000000e-02, 1.9223542e-01, 0.0
797, 3.0000000e-02, 1.9273542e-01, 0.0
798, 2.9500000e-02, 1.9273542e-01, 0.0
799, 3.0500000e-02, 1.9273542e-01, 0.0
800, 3.1000000e-02, 1.9273542e-01, 0.0
801, 3.1500000e-02, 1.9273542e-01, 0.0
802, 3.2000000e-02, 1.9273542e-01, 0.0
803, 3.2121198e-02, 1.9273542e-01, 0.0
804, 3.2500000e-02, 1.9273542e-01, 0.0
805, 3.3000000e-02, 1.9273542e-01, 0.0
806, 3.3500000e-02, 1.9273542e-01, 0.0
807, 3.4000000e-02, 1.9273542e-01, 0.0
808, 3.4500000e-02, 1.9273542e-01, 0.0
809, 3.4914345e-02, 1.9273542e-01, 0.0
810, 1.0000000e-03, 1.9323542e-01, 0.0
811, 5.0000000e-04, 1.9323542e-01, 0.0
812, 1.5000000e-03, 1.9323542e-01, 0.0
813, 2.0000000e-03, 1.9323542e-01, 0.0
814, 2.5000000e-03, 1.9323542e-01, 0.0
815, 3.0000000e-03, 1.9323542e-01, 0.0
816, 3.5000000e-03, 1.9323542e-01, 0.0
817, 4.0000000e-03, 1.9323542e-01, 0.0
818, 4.5000000e-03, 1.9323542e-01, 0.0
819, 5.0000000e-03, 1.9323542e-01, 0.0
820, 5.5000000e-03, 1.9323542e-01, 0.0
821, 6.0000000e-03, 1.9323542e-01, 0.0
822, 6.5000000e-03, 1.9323542e-01, 0.0
823, 7.0000000e-03, 1.9323542e-01, 0.0
824, 7.5000000e-03, 1.9323542e-01, 0.0
825, 8.0000000e-03, 1.9323542e-01, 0.0
826, 8.5000000e-03, 1.9323542e-01, 0.0
827, 9.0000000e-03, 1.9323542e-01, 0.0
828, 9.5000000e-03, 1.9323542e-01, 0.0
829, 1.0000000e-02, 1.9323542e-01, 0.0
830, 1.0500000e-02, 1.9323542e-01, 0.0
831, 1.1000000e-02, 1.9323542e-01, 0.0
832, 1.1500000e-02, 1.9323542e-01, 0.0
833, 1.2000000e-02, 1.9323542e-01, 0.0
834, 1.2500000e-02, 1.9323542e-01, 0.0
835, 1.3000000e-02, 1.9323542e-01, 0.0
836, 1.3353586e-02, 1.9323542e-01, 0.0
837, 1.3500000e-02, 1.9323542e-01, 0.0
838, 1.4000000e-02, 1.9323542e-01, 0.0
839, 1.4353586e-02, 1.9323542e-01, 0.0
840, 2.9000000e-02, 1.9273542e-01, 0.0
841, 2.9500000e-02, 1.9323542e-01, 0.0
842, 2.9000000e-02, 1.9323542e-01, 0.0
843, 3.0000000e-02, 1.9323542e-01, 0.0
844, 3.0500000e-02, 1.9323542e-01, 0.0
845, 3.1000000e-02, 1.9323542e-01, 0.0
846, 3.1500000e-02, 1.9323542e-01, 0.0
847, 3.2000000e-02, 1.9323542e-01, 0.0
848, 3.2121198e-02, 1.9323542e-01, 0.0
849, 3.2500000e-02, 1.9323542e-01, 0.0
850, 3.3000000e-02, 1.9323542e-01, 0.0
851, 3.3500000e-02, 1.9323542e-01, 0.0
852, 3.4000000e-02, 1.9323542e-01, 0.0
853, 3.4500000e-02, 1.9323542e-01, 0.0
854, 3.4914345e-02, 1.9323542e-01, 0.0
855, 1.0000000e-03, 1.9372801e-01, 0.0
856, 5.0000000e-04, 1.9372801e-01, 0.0
857, 1.5000000e-03, 1.9372801e-01, 0.0
858, 2.0000000e-03, 1.9372801e-01, 0.0
859, 2.5000000e-03, 1.9372801e-01, 0.0
860, 3.0000000e-03, 1.9372801e-01, 0.0
861, 3.5000000e-03, 1.9372801e-01, 0.0
862, 4.0000000e-03, 1.9372801e-01, 0.0
863, 4.5000000e-03, 1.9372801e-01, 0.0
864, 5.0000000e-03, 1.9372801e-01, 0.0
865, 5.5000000e-03, 1.9372801e-01, 0.0
866, 6.0000000e-03, 1.9372801e-01, 0.0
867, 6.5000000e-03, 1.9372801e-01, 0.0
868, 7.0000000e-03, 1.9372801e-01, 0.0
869, 7.5000000e-03, 1.9372801e-01, 0.0
870, 8.0000000e-03, 1.9372801e-01, 0.0
871, 8.5000000e-03, 1.9372801e-01, 0.0
872, 9.0000000e-03, 1.9372801e-01, 0.0
873, 9.5000000e-03, 1.9372801e-01, 0.0
874, 1.0000000e-02, 1.9372801e-01, 0.0
875, 1.0500000e-02, 1.9372801e-01, 0.0
876, 1.1000000e-02, 1.9372801e-01, 0.0
877, 1.1500000e-02, 1.9372801e-01, 0.0
878, 1.2000000e-02, 1.9372801e-01, 0.0
879, 1.2500000e-02, 1.9372801e-01, 0.0
880, 1.3000000e-02, 1.9372801e-01, 0.0
881, 1.3353586e-02, 1.9372801e-01, 0.0
882, 1.3500000e-02, 1.9372801e-01, 0.0
883, 1.4000000e-02, 1.9372801e-01, 0.0
884, 1.4353586e-02, 1.9372801e-01, 0.0
885, 2.8500000e-02, 1.9323542e-01, 0.0
886, 2.9000000e-02, 1.9372801e-01, 0.0
887, 2.8500000e-02, 1.9372801e-01, 0.0
888, 2.9500000e-02, 1.9372801e-01, 0.0
889, 3.0000000e-02, 1.9372801e-01, 0.0
890, 3.0500000e-02, 1.9372801e-01, 0.0
891, 3.1000000e-02, 1.9372801e-01, 0.0
892, 3.1500000e-02, 1.9372801e-01, 0.0
893, 3.2000000e-02, 1.9372801e-01, 0.0
894, 3.2121198e-02, 1.9372801e-01, 0.0
895, 3.2500000e-02, 1.9372801e-01, 0.0
896, 3.3000000e-02, 1.9372801e-01, 0.0
897, 3.3500000e-02, 1.9372801e-01, 0.0
898, 3.4000000e-02, 1.9372801e-01, 0.0
899, 3.4500000e-02, 1.9372801e-01, 0.0
900, 3.4914345e-02, 1.9372801e-01, 0.0
901, 1.0000000e-03, 1.9423542e-01, 0.0
902, 5.0000000e-04, 1.9423542e-01, 0.0
903, 1.5000000e-03, 1.9423542e-01, 0.0
904, 2.0000000e-03, 1.9423542e-01, 0.0
905, 2.5000000e-03, 1.9423542e-01, 0.0
906, 3.0000000e-03, 1.9423542e-01, 0.0
907, 3.5000000e-03, 1.9423542e-01, 0.0
908, 4.0000000e-03, 1.9423542e-01, 0.0
909, 4.5000000e-03, 1.9423542e-01, 0.0
910, 5.0000000e-03, 1.9423542e-01, 0.0
911, 5.5000000e-03, 1.9423542e-01, 0.0
912, 6.0000000e-03, 1.9423542e-01, 0.0
913, 6.5000000e-03, 1.9423542e-01, 0.0
914, 7.0000000e-03, 1.9423542e-01, 0.0
915, 7.5000000e-03, 1.9423542e-01, 0.0
916, 8.0000000e-03, 1.9423542e-01, 0.0
917, 8.5000000e-03, 1.9423542e-01, 0.0
918, 9.0000000e-03, 1.9423542e-01, 0.0
919, 9.5000000e-03, 1.9423542e-01, 0.0
920, 1.0000000e-02, 1.9423542e-01, 0.0
921, 1.0500000e-02, 1.9423542e-01, 0.0
922, 1.1000000e-02, 1.9423542e-01, 0.0
923, 1.1500000e-02, 1.9423542e-01, 0.0
924, 1.2000000e-02, 1.9423542e-01, 0.0
925, 1.2500000e-02, 1.9423542e-01, 0.0
926, 1.3000000e-02, 1.9423542e-01, 0.0
927, 1.3353586e-02, 1.9423542e-01, 0.0
928, 1.3500000e-02, 1.9423542e-01, 0.0
929, 1.4000000e-02, 1.9423542e-01, 0.0
930, 1.4353586e-02, 1.9423542e-01, 0.0
931, 1.4500000e-02, 1.9372801e-01, 0.0
932, 1.4500000e-02, 1.9423542e-01, 0.0
933, 1.5000000e-02, 1.9372801e-01, 0.0
934, 1.5000000e-02, 1.9423542e-01, 0.0
935, 1.5500000e-02, 1.9372801e-01, 0.0
936, 1.5500000e-02, 1.9423542e-01, 0.0
937, 1.6000000e-02, 1.9372801e-01, 0.0
938, 1.6000000e-02, 1.9423542e-01, 0.0
939, 1.6500000e-02, 1.9372801e-01, 0.0
940, 1.6500000e-02, 1.9423542e-01, 0.0
941, 1.7000000e-02, 1.9372801e-01, 0.0
942, 1.7000000e-02, 1.9423542e-01, 0.0
943, 1.7500000e-02, 1.9372801e-01, 0.0
944, 1.7500000e-02, 1.9423542e-01, 0.0
945, 1.8000000e-02, 1.9372801e-01, 0.0
946, 1.8000000e-02, 1.9423542e-01, 0.0
947, 1.8500000e-02, 1.9372801e-01, 0.0
948, 1.8500000e-02, 1.9423542e-01, 0.0
949, 1.9000000e-02, 1.9372801e-01, 0.0
950, 1.9000000e-02, 1.9423542e-01, 0.0
951, 1.9500000e-02, 1.9372801e-01, 0.0
952, 1.9500000e-02, 1.9423542e-01, 0.0
953, 2.0000000e-02, 1.9372801e-01, 0.0
954, 2.0000000e-02, 1.9423542e-01, 0.0
955, 2.0500000e-02, 1.9372801e-01, 0.0
956, 2.0500000e-02, 1.9423542e-01, 0.0
957, 2.1000000e-02, 1.9372801e-01, 0.0
958, 2.1000000e-02, 1.9423542e-01, 0.0
959, 2.1500000e-02, 1.9372801e-01, 0.0
960, 2.1500000e-02, 1.9423542e-01, 0.0
961, 2.2000000e-02, 1.9372801e-01, 0.0
962, 2.2000000e-02, 1.9423542e-01, 0.0
963, 2.2500000e-02, 1.9372801e-01, 0.0
964, 2.2500000e-02, 1.9423542e-01, 0.0
965, 2.3000000e-02, 1.9372801e-01, 0.0
966, 2.3000000e-02, 1.9423542e-01, 0.0
967, 2.3500000e-02, 1.9372801e-01, 0.0
968, 2.3500000e-02, 1.9423542e-01, 0.0
969, 2.4000000e-02, 1.9372801e-01, 0.0
970, 2.4000000e-02, 1.9423542e-01, 0.0
971, 2.4500000e-02, 1.9372801e-01, 0.0
972, 2.4500000e-02, 1.9423542e-01, 0.0
973, 2.5000000e-02, 1.9372801e-01, 0.0
974, 2.5000000e-02, 1.9423542e-01, 0.0
975, 2.5500000e-02, 1.9372801e-01, 0.0
976, 2.5500000e-02, 1.9423542e-01, 0.0
977, 2.6000000e-02, 1.9372801e-01, 0.0
978, 2.6000000e-02, 1.9423542e-01, 0.0
979, 2.6500000e-02, 1.9372801e-01, 0.0
980, 2.6500000e-02, 1.9423542e-01, 0.0
981, 2.7000000e-02, 1.9372801e-01, 0.0
982, 2.7000000e-02, 1.9423542e-01, 0.0
983, 2.7500000e-02, 1.9372801e-01, 0.0
984, 2.7500000e-02, 1.9423542e-01, 0.0
985, 2.7931476e-02, 1.9372801e-01, 0.0
986, 2.7931476e-02, 1.9423542e-01, 0.0
987, 2.8000000e-02, 1.9372801e-01, 0.0
988, 2.8000000e-02, 1.9423542e-01, 0.0
989, 2.8500000e-02, 1.9423542e-01, 0.0
990, 2.9000000e-02, 1.9423542e-01, 0.0
991, 2.9500000e-02, 1.9423542e-01, 0.0
992, 3.0000000e-02, 1.9423542e-01, 0.0
993, 3.0500000e-02, 1.9423542e-01, 0.0
994, 3.1000000e-02, 1.9423542e-01, 0.0
995, 3.1500000e-02, 1.9423542e-01, 0.0
996, 3.2000000e-02, 1.9423542e-01, 0.0
997, 3.2121198e-02, 1.9423542e-01, 0.0
998, 3.2500000e-02, 1.9423542e-01, 0.0
999, 3.3000000e-02, 1.9423542e-01, 0.0
1000, 3.3500000e-02, 1.9423542e-01, 0.0
1001, 3.4000000e-02, 1.9423542e-01, 0.0
1002, 3.4500000e-02, 1.9423542e-01, 0.0
1003, 3.4914345e-02, 1.9423542e-01, 0.0
1004, 1.0000000e-03, 1.9473542e-01, 0.0
1005, 5.0000000e-04, 1.9473542e-01, 0.0
1006, 1.5000000e-03, 1.9473542e-01, 0.0
1007, 2.0000000e-03, 1.9473542e-01, 0.0
1008, 2.5000000e-03, 1.9473542e-01, 0.0
1009, 3.0000000e-03, 1.9473542e-01, 0.0
1010, 3.5000000e-03, 1.9473542e-01, 0.0
1011, 4.0000000e-03, 1.9473542e-01, 0.0
1012, 4.5000000e-03, 1.9473542e-01, 0.0
1013, 5.0000000e-03, 1.9473542e-01, 0.0
1014, 5.5000000e-03, 1.9473542e-01, 0.0
1015, 6.0000000e-03, 1.9473542e-01, 0.0
1016, 6.5000000e-03, 1.9473542e-01, 0.0
1017, 7.0000000e-03, 1.9473542e-01, 0.0
1018, 7.5000000e-03, 1.9473542e-01, 0.0
1019, 8.0000000e-03, 1.9473542e-01, 0.0
1020, 8.5000000e-03, 1.9473542e-01, 0.0
1021, 9.0000000e-03, 1.9473542e-01, 0.0
1022, 9.5000000e-03, 1.9473542e-01, 0.0
1023, 1.0000000e-02, 1.9473542e-01, 0.0
1024, 1.0500000e-02, 1.9473542e-01, 0.0
1025, 1.1000000e-02, 1.9473542e-01, 0.0
1026, 1.1500000e-02, 1.9473542e-01, 0.0
1027, 1.2000000e-02, 1.9473542e-01, 0.0
1028, 1.2500000e-02, 1.9473542e-01, 0.0
1029, 1.3000000e-02, 1.9473542e-01, 0.0
1030, 1.3353586e-02, 1.9473542e-01, 0.0
1031, 1.3500000e-02, 1.9473542e-01, 0.0
1032, 1.4000000e-02, 1.9473542e-01, 0.0
1033, 1.4353586e-02, 1.9473542e-01, 0.0
1034, 1.4500000e-02, 1.9473542e-01, 0.0
1035, 1.5000000e-02, 1.9473542e-01, 0.0
1036, 1.5500000e-02, 1.9473542e-01, 0.0
1037, 1.6000000e-02, 1.9473542e-01, 0.0
1038, 1.6500000e-02, 1.9473542e-01, 0.0
1039, 1.7000000e-02, 1.9473542e-01, 0.0
1040, 1.7500000e-02, 1.9473542e-01, 0.0
1041, 1.8000000e-02, 1.9473542e-01, 0.0
1042, 1.8500000e-02, 1.9473542e-01, 0.0
1043, 1.9000000e-02, 1.9473542e-01, 0.0
1044, 1.9500000e-02, 1.9473542e-01, 0.0
1045, 2.0000000e-02, 1.9473542e-01, 0.0
1046, 2.0500000e-02, 1.9473542e-01, 0.0
1047, 2.1000000e-02, 1.9473542e-01, 0.0
1048, 2.1500000e-02, 1.9473542e-01, 0.0
1049, 2.2000000e-02, 1.9473542e-01, 0.0
1050, 2.2500000e-02, 1.9473542e-01, 0.0
1051, 2.3000000e-02, 1.9473542e-01, 0.0
1052, 2.3500000e-02, 1.9473542e-01, 0.0
1053, 2.4000000e-02, 1.9473542e-01, 0.0
1054, 2.4500000e-02, 1.9473542e-01, 0.0
1055, 2.5000000e-02, 1.9473542e-01, 0.0
1056, 2.5500000e-02, 1.9473542e-01, 0.0
1057, 2.6000000e-02, 1.9473542e-01, 0.0
1058, 2.6500000e-02, 1.9473542e-01, 0.0
1059, 2.7000000e-02, 1.9473542e-01, 0.0
1060, 2.7500000e-02, 1.9473542e-01, 0.0
1061, 2.7931476e-02, 1.9473542e-01, 0.0
1062, 2.8000000e-02, 1.9473542e-01, 0.0
1063, 2.8500000e-02, 1.9473542e-01, 0.0
1064, 2.9000000e-02, 1.9473542e-01, 0.0
1065, 2.9500000e-02, 1.9473542e-01, 0.0
1066, 3.0000000e-02, 1.9473542e-01, 0.0
1067, 3.0500000e-02, 1.9473542e-01, 0.0
1068, 3.1000000e-02, 1.9473542e-01, 0.0
1069, 3.1500000e-02, 1.9473542e-01, 0.0
1070, 3.2000000e-02, 1.9473542e-01, 0.0
1071, 3.2121198e-02, 1.9473542e-01, 0.0
1072, 3.2500000e-02, 1.9473542e-01, 0.0
1073, 3.3000000e-02, 1.9473542e-01, 0.0
1074, 3.3500000e-02, 1.9473542e-01, 0.0
1075, 3.4000000e-02, 1.9473542e-01, 0.0
1076, 3.4500000e-02, 1.9473542e-01, 0.0
1077, 3.4914345e-02, 1.9473542e-01, 0.0
1078, 1.0000000e-03, 1.9523542e-01, 0.0
1079, 5.0000000e-04, 1.9523542e-01, 0.0
1080, 1.5000000e-03, 1.9523542e-01, 0.0
1081, 2.0000000e-03, 1.9523542e-01, 0.0
1082, 2.5000000e-03, 1.9523542e-01, 0.0
1083, 3.0000000e-03, 1.9523542e-01, 0.0
1084, 3.5000000e-03, 1.9523542e-01, 0.0
1085, 4.0000000e-03, 1.9523542e-01, 0.0
1086, 4.5000000e-03, 1.9523542e-01, 0.0
1087, 5.0000000e-03, 1.9523542e-01, 0.0
1088, 5.5000000e-03, 1.9523542e-01, 0.0
1089, 6.0000000e-03, 1.9523542e-01, 0.0
1090, 6.5000000e-03, 1.9523542e-01, 0.0
1091, 7.0000000e-03, 1.9523542e-01, 0.0
1092, 7.5000000e-03, 1.9523542e-01, 0.0
1093, 8.0000000e-03, 1.9523542e-01, 0.0
1094, 8.5000000e-03, 1.9523542e-01, 0.0
1095, 9.0000000e-03, 1.9523542e-01, 0.0
1096, 9.5000000e-03, 1.9523542e-01, 0.0
1097, 1.0000000e-02, 1.9523542e-01, 0.0
1098, 1.0500000e-02, 1.9523542e-01, 0.0
1099, 1.1000000e-02, 1.9523542e-01, 0.0
1100, 1.1500000e-02, 1.9523542e-01, 0.0
1101, 1.2000000e-02, 1.9523542e-01, 0.0
1102, 1.2500000e-02, 1.9523542e-01, 0.0
1103, 1.3000000e-02, 1.9523542e-01, 0.0
1104, 1.3353586e-02, 1.9523542e-01, 0.0
1105, 1.3500000e-02, 1.9523542e-01, 0.0
1106, 1.4000000e-02, 1.9523542e-01, 0.0
1107, 1.4353586e-02, 1.9523542e-01, 0.0
1108, 1.4500000e-02, 1.9523542e-01, 0.0
1109, 1.5000000e-02, 1.9523542e-01, 0.0
1110, 1.5500000e-02, 1.9523542e-01, 0.0
1111, 1.6000000e-02, 1.9523542e-01, 0.0
1112, 1.6500000e-02, 1.9523542e-01, 0.0
1113, 1.7000000e-02, 1.9523542e-01, 0.0
1114, 1.7500000e-02, 1.9523542e-01, 0.0
1115, 1.8000000e-02, 1.9523542e-01, 0.0
1116, 1.8500000e-02, 1.9523542e-01, 0.0
1117, 1.9000000e-02, 1.9523542e-01, 0.0
1118, 1.9500000e-02, 1.9523542e-01, 0.0
1119, 2.0000000e-02, 1.9523542e-01, 0.0
1120, 2.0500000e-02, 1.9523542e-01, 0.0
1121, 2.1000000e-02, 1.9523542e-01, 0.0
1122, 2.1500000e-02, 1.9523542e-01, 0.0
1123, 2.2000000e-02, 1.9523542e-01, 0.0
1124, 2.2500000e-02, 1.9523542e-01, 0.0
1125, 2.3000000e-02, 1.9523542e-01, 0.0
1126, 2.3500000e-02, 1.9523542e-01, 0.0
1127, 2.4000000e-02, 1.9523542e-01, 0.0
1128, 2.4500000e-02, 1.9523542e-01, 0.0
1129, 2.5000000e-02, 1.9523542e-01, 0.0
1130, 2.5500000e-02, 1.9523542e-01, 0.0
1131, 2.6000000e-02, 1.9523542e-01, 0.0
1132, 2.6500000e-02, 1.9523542e-01, 0.0
1133, 2.7000000e-02, 1.9523542e-01, 0.0
1134, 2.7500000e-02, 1.9523542e-01, 0.0
1135, 2.7931476e-02, 1.9523542e-01, 0.0
1136, 2.8000000e-02, 1.9523542e-01, 0.0
1137, 2.8500000e-02, 1.9523542e-01, 0.0
1138, 2.9000000e-02, 1.9523542e-01, 0.0
1139, 2.9500000e-02, 1.9523542e-01, 0.0
1140, 3.0000000e-02, 1.9523542e-01, 0.0
1141, 3.0500000e-02, 1.9523542e-01, 0.0
1142, 3.1000000e-02, 1.9523542e-01, 0.0
1143, 3.1500000e-02, 1.9523542e-01, 0.0
1144, 3.2000000e-02, 1.9523542e-01, 0.0
1145, 3.2121198e-02, 1.9523542e-01, 0.0
1146, 3.2500000e-02, 1.9523542e-01, 0.0
1147, 3.3000000e-02, 1.9523542e-01, 0.0
1148, 3.3500000e-02, 1.9523542e-01, 0.0
1149, 3.4000000e-02, 1.9523542e-01, 0.0
1150, 3.4500000e-02, 1.9523542e-01, 0.0
1151, 3.4914345e-02, 1.9523542e-01, 0.0
1152, 1.0000000e-03, 1.9573542e-01, 0.0
1153, 5.0000000e-04, 1.9573542e-01, 0.0
1154, 1.5000000e-03, 1.9573542e-01, 0.0
1155, 2.0000000e-03, 1.9573542e-01, 0.0
1156, 2.5000000e-03, 1.9573542e-01, 0.0
1157, 3.0000000e-03, 1.9573542e-01, 0.0
1158, 3.5000000e-03, 1.9573542e-01, 0.0
1159, 4.0000000e-03, 1.9573542e-01, 0.0
1160, 4.5000000e-03, 1.9573542e-01, 0.0
1161, 5.0000000e-03, 1.9573542e-01, 0.0
1162, 5.5000000e-03, 1.9573542e-01, 0.0
1163, 6.0000000e-03, 1.9573542e-01, 0.0
1164, 6.5000000e-03, 1.9573542e-01, 0.0
1165, 7.0000000e-03, 1.9573542e-01, 0.0
1166, 7.5000000e-03, 1.9573542e-01, 0.0
1167, 8.0000000e-03, 1.9573542e-01, 0.0
1168, 8.5000000e-03, 1.9573542e-01, 0.0
1169, 9.0000000e-03, 1.9573542e-01, 0.0
1170, 9.5000000e-03, 1.9573542e-01, 0.0
1171, 1.0000000e-02, 1.9573542e-01, 0.0
1172, 1.0500000e-02, 1.9573542e-01, 0.0
1173, 1.1000000e-02, 1.9573542e-01, 0.0
1174, 1.1500000e-02, 1.9573542e-01, 0.0
1175, 1.2000000e-02, 1.9573542e-01, 0.0
1176, 1.2500000e-02, 1.9573542e-01, 0.0
1177, 1.3000000e-02, 1.9573542e-01, 0.0
1178, 1.3353586e-02, 1.9573542e-01, 0.0
1179, 1.3500000e-02, 1.9573542e-01, 0.0
1180, 1.4000000e-02, 1.9573542e-01, 0.0
1181, 1.4353586e-02, 1.9573542e-01, 0.0
1182, 1.4500000e-02, 1.9573542e-01, 0.0
1183, 1.5000000e-02, 1.9573542e-01, 0.0
1184, 1.5500000e-02, 1.9573542e-01, 0.0
1185, 1.6000000e-02, 1.9573542e-01, 0.0
1186, 1.6500000e-02, 1.9573542e-01, 0.0
1187, 1.7000000e-02, 1.9573542e-01, 0.0
1188, 1.7500000e-02, 1.9573542e-01, 0.0
1189, 1.8000000e-02, 1.9573542e-01, 0.0
1190, 1.8500000e-02, 1.9573542e-01, 0.0
1191, 1.9000000e-02, 1.9573542e-01, 0.0
1192, 1.9500000e-02, 1.9573542e-01, 0.0
1193, 2.0000000e-02, 1.9573542e-01, 0.0
1194, 2.0500000e-02, 1.9573542e-01, 0.0
1195, 2.1000000e-02, 1.9573542e-01, 0.0
1196, 2.1500000e-02, 1.9573542e-01, 0.0
1197, 2.2000000e-02, 1.9573542e-01, 0.0
1198, 2.2500000e-02, 1.9573542e-01, 0.0
1199, 2.3000000e-02, 1.9573542e-01, 0.0
1200, 2.3500000e-02, 1.9573542e-01, 0.0
1201, 2.4000000e-02, 1.9573542e-01, 0.0
1202, 2.4500000e-02, 1.9573542e-01, 0.0
1203, 2.5000000e-02, 1.9573542e-01, 0.0
1204, 2.5500000e-02, 1.9573542e-01, 0.0
1205, 2.6000000e-02, 1.9573542e-01, 0.0
1206, 2.6500000e-02, 1.9573542e-01, 0.0
1207, 2.7000000e-02, 1.9573542e-01, 0.0
1208, 2.7500000e-02, 1.9573542e-01, 0.0
1209, 2.7931476e-02, 1.9573542e-01, 0.0
1210, 2.8000000e-02, 1.9573542e-01, 0.0
1211, 2.8500000e-02, 1.9573542e-01, 0.0
1212, 2.9000000e-02, 1.9573542e-01, 0.0
1213, 2.9500000e-02, 1.9573542e-01, 0.0
1214, 3.0000000e-02, 1.9573542e-01, 0.0
1215, 3.0500000e-02, 1.9573542e-01, 0.0
1216, 3.1000000e-02, 1.9573542e-01, 0.0
1217, 3.1500000e-02, 1.9573542e-01, 0.0
1218, 3.2000000e-02, 1.9573542e-01, 0.0
1219, 3.2121198e-02, 1.9573542e-01, 0.0
1220, 3.2500000e-02, 1.9573542e-01, 0.0
1221, 3.3000000e-02, 1.9573542e-01, 0.0
1222, 3.3500000e-02, 1.9573542e-01, 0.0
1223, 3.4000000e-02, 1.9573542e-01, 0.0
1224, 3.4500000e-02, 1.9573542e-01, 0.0
1225, 3.4914345e-02, 1.9573542e-01, 0.0
1226, 1.0000000e-03, 1.9623542e-01, 0.0
1227, 5.0000000e-04, 1.9623542e-01, 0.0
1228, 1.5000000e-03, 1.9623542e-01, 0.0
1229, 2.0000000e-03, 1.9623542e-01, 0.0
1230, 2.5000000e-03, 1.9623542e-01, 0.0
1231, 3.0000000e-03, 1.9623542e-01, 0.0
1232, 3.5000000e-03, 1.9623542e-01, 0.0
1233, 4.0000000e-03, 1.9623542e-01, 0.0
1234, 4.5000000e-03, 1.9623542e-01, 0.0
1235, 5.0000000e-03, 1.9623542e-01, 0.0
1236, 5.5000000e-03, 1.9623542e-01, 0.0
1237, 6.0000000e-03, 1.9623542e-01, 0.0
1238, 6.5000000e-03, 1.9623542e-01, 0.0
1239, 7.0000000e-03, 1.9623542e-01, 0.0
1240, 7.5000000e-03, 1.9623542e-01, 0.0
1241, 8.0000000e-03, 1.9623542e-01, 0.0
1242, 8.5000000e-03, 1.9623542e-01, 0.0
1243, 9.0000000e-03, 1.9623542e-01, 0.0
1244, 9.5000000e-03, 1.9623542e-01, 0.0
1245, 1.0000000e-02, 1.9623542e-01, 0.0
1246, 1.0500000e-02, 1.9623542e-01, 0.0
1247, 1.1000000e-02, 1.9623542e-01, 0.0
1248, 1.1500000e-02, 1.9623542e-01, 0.0
1249, 1.2000000e-02, 1.9623542e-01, 0.0
1250, 1.2500000e-02, 1.9623542e-01, 0.0
1251, 1.3000000e-02, 1.9623542e-01, 0.0
1252, 1.3353586e-02, 1.9623542e-01, 0.0
1253, 1.3500000e-02, 1.9623542e-01, 0.0
1254, 1.4000000e-02, 1.9623542e-01, 0.0
1255, 1.4353586e-02, 1.9623542e-01, 0.0
1256, 1.4500000e-02, 1.9623542e-01, 0.0
1257, 1.5000000e-02, 1.9623542e-01, 0.0
1258, 1.5500000e-02, 1.9623542e-01, 0.0
1259, 1.6000000e-02, 1.9623542e-01, 0.0
1260, 1.6500000e-02, 1.9623542e-01, 0.0
1261, 1.7000000e-02, 1.9623542e-01, 0.0
1262, 1.7500000e-02, 1.9623542e-01, 0.0
1263, 1.8000000e-02, 1.9623542e-01, 0.0
1264, 1.8500000e-02, 1.9623542e-01, 0.0
1265, 1.9000000e-02, 1.9623542e-01, 0.0
1266, 1.9500000e-02, 1.9623542e-01, 0.0
1267, 2.0000000e-02, 1.9623542e-01, 0.0
1268, 2.0500000e-02, 1.9623542e-01, 0.0
1269, 2.1000000e-02, 1.9623542e-01, 0.0
1270, 2.1500000e-02, 1.9623542e-01, 0.0
1271, 2.2000000e-02, 1.9623542e-01, 0.0
1272, 2.2500000e-02, 1.9623542e-01, 0.0
1273, 2.3000000e-02, 1.9623542e-01, 0.0
1274, 2.3500000e-02, 1.9623542e-01, 0.0
1275, 2.4000000e-02, 1.9623542e-01, 0.0
1276, 2.4500000e-02, 1.9623542e-01, 0.0
1277, 2.5000000e-02, 1.9623542e-01, 0.0
1278, 2.5500000e-02, 1.9623542e-01, 0.0
1279, 2.6000000e-02, 1.9623542e-01, 0.0
1280, 2.6500000e-02, 1.9623542e-01, 0.0
1281, 2.7000000e-02, 1.9623542e-01, 0.0
1282, 2.7500000e-02, 1.9623542e-01, 0.0
1283, 2.7931476e-02, 1.9623542e-01, 0.0
1284, 2.8000000e-02, 1.9623542e-01, 0.0
1285, 2.8500000e-02, 1.9623542e-01, 0.0
1286, 2.9000000e-02, 1.9623542e-01, 0.0
1287, 2.9500000e-02, 1.9623542e-01, 0.0
1288, 3.0000000e-02, 1.9623542e-01, 0.0
1289, 3.0500000e-02, 1.9623542e-01, 0.0
1290, 3.1000000e-02, 1.9623542e-01, 0.0
1291, 3.1500000e-02, 1.9623542e-01, 0.0
1292, 3.2000000e-02, 1.9623542e-01, 0.0
1293, 3.2121198e-02, 1.9623542e-01, 0.0
1294, 3.2500000e-02, 1.9623542e-01, 0.0
1295, 3.3000000e-02, 1.9623542e-01, 0.0
1296, 3.3500000e-02, 1.9623542e-01, 0.0
1297, 3.4000000e-02, 1.9623542e-01, 0.0
1298, 3.4500000e-02, 1.9623542e-01, 0.0
1299, 3.4914345e-02, 1.9623542e-01, 0.0
1300, 1.0000000e-03, 1.9673542e-01, 0.0
1301, 5.0000000e-04, 1.9673542e-01, 0.0
1302, 1.5000000e-03, 1.9673542e-01, 0.0
1303, 2.0000000e-03, 1.9673542e-01, 0.0
1304, 2.5000000e-03, 1.9673542e-01, 0.0
1305, 3.0000000e-03, 1.9673542e-01, 0.0
1306, 3.5000000e-03, 1.9673542e-01, 0.0
1307, 4.0000000e-03, 1.9673542e-01, 0.0
1308, 4.5000000e-03, 1.9673542e-01, 0.0
1309, 5.0000000e-03, 1.9673542e-01, 0.0
1310, 5.5000000e-03, 1.9673542e-01, 0.0
1311, 6.0000000e-03, 1.9673542e-01, 0.0
1312, 6.5000000e-03, 1.9673542e-01, 0.0
1313, 7.0000000e-03, 1.9673542e-01, 0.0
1314, 7.5000000e-03, 1.9673542e-01, 0.0
1315, 8.0000000e-03, 1.9673542e-01, 0.0
1316, 8.5000000e-03, 1.9673542e-01, 0.0
1317, 9.0000000e-03, 1.9673542e-01, 0.0
1318, 9.5000000e-03, 1.9673542e-01, 0.0
1319, 1.0000000e-02, 1.9673542e-01, 0.0
1320, 1.0500000e-02, 1.9673542e-01, 0.0
1321, 1.1000000e-02, 1.9673542e-01, 0.0
1322, 1.1500000e-02, 1.9673542e-01, 0.0
1323, 1.2000000e-02, 1.9673542e-01, 0.0
1324, 1.2500000e-02, 1.9673542e-01, 0.0
1325, 1.3000000e-02, 1.9673542e-01, 0.0
1326, 1.3353586e-02, 1.9673542e-01, 0.0
1327, 1.3500000e-02, 1.9673542e-01, 0.0
1328, 1.4000000e-02, 1.9673542e-01, 0.0
1329, 1.4353586e-02, 1.9673542e-01, 0.0
1330, 1.4500000e-02, 1.9673542e-01, 0.0
1331, 1.5000000e-02, 1.9673542e-01, 0.0
1332, 1.5500000e-02, 1.9673542e-01, 0.0
1333, 1.6000000e-02, 1.9673542e-01, 0.0
1334, 1.6500000e-02, 1.9673542e-01, 0.0
1335, 1.7000000e-02, 1.9673542e-01, 0.0
1336, 1.7500000e-02, 1.9673542e-01, 0.0
1337, 1.8000000e-02, 1.9673542e-01, 0.0
1338, 1.8500000e-02, 1.9673542e-01, 0.0
1339, 1.9000000e-02, 1.9673542e-01, 0.0
1340, 1.9500000e-02, 1.9673542e-01, 0.0
1341, 2.0000000e-02, 1.9673542e-01, 0.0
1342, 2.0500000e-02, 1.9673542e-01, 0.0
1343, 2.1000000e-02, 1.9673542e-01, 0.0
1344, 2.1500000e-02, 1.9673542e-01, 0.0
1345, 2.2000000e-02, 1.9673542e-01, 0.0
1346, 2.2500000e-02, 1.9673542e-01, 0.0
1347, 2.3000000e-02, 1.9673542e-01, 0.0
1348, 2.3500000e-02, 1.9673542e-01, 0.0
1349, 2.4000000e-02, 1.9673542e-01, 0.0
1350, 2.4500000e-02, 1.9673542e-01, 0.0
1351, 2.5000000e-02, 1.9673542e-01, 0.0
1352, 2.5500000e-02, 1.9673542e-01, 0.0
1353, 2.6000000e-02, 1.9673542e-01, 0.0
1354, 2.6500000e-02, 1.9673542e-01, 0.0
1355, 2.7000000e-02, 1.9673542e-01, 0.0
1356, 2.7500000e-02, 1.9673542e-01, 0.0
1357, 2.7931476e-02, 1.9673542e-01, 0.0
1358, 2.8000000e-02, 1.9673542e-01, 0.0
1359, 2.8500000e-02, 1.9673542e-01, 0.0
1360, 2.9000000e-02, 1.9673542e-01, 0.0
1361, 2.9500000e-02, 1.9673542e-01, 0.0
1362, 3.0000000e-02, 1.9673542e-01, 0.0
1363, 3.0500000e-02, 1.9673542e-01, 0.0
1364, 3.1000000e-02, 1.9673542e-01, 0.0
1365, 3.1500000e-02, 1.9673542e-01, 0.0
1366, 3.2000000e-02, 1.9673542e-01, 0.0
1367, 3.2121198e-02, 1.9673542e-01, 0.0
1368, 3.2500000e-02, 1.9673542e-01, 0.0
1369, 3.3000000e-02, 1.9673542e-01, 0.0
1370, 3.3500000e-02, 1.9673542e-01, 0.0
1371, 3.4000000e-02, 1.9673542e-01, 0.0
1372, 3.4500000e-02, 1.9673542e-01, 0.0
1373, 3.4914345e-02, 1.9673542e-01, 0.0
1374, 1.0000000e-03, 1.9723542e-01, 0.0
1375, 5.0000000e-04, 1.9723542e-01, 0.0
1376, 1.5000000e-03, 1.9723542e-01, 0.0
1377, 2.0000000e-03, 1.9723542e-01, 0.0
1378, 2.5000000e-03, 1.9723542e-01, 0.0
1379, 3.0000000e-03, 1.9723542e-01, 0.0
1380, 3.5000000e-03, 1.9723542e-01, 0.0
1381, 4.0000000e-03, 1.9723542e-01, 0.0
1382, 4.5000000e-03, 1.9723542e-01, 0.0
1383, 5.0000000e-03, 1.9723542e-01, 0.0
1384, 5.5000000e-03, 1.9723542e-01, 0.0
1385, 6.0000000e-03, 1.9723542e-01, 0.0
1386, 6.5000000e-03, 1.9723542e-01, 0.0
1387, 7.0000000e-03, 1.9723542e-01, 0.0
1388, 7.5000000e-03, 1.9723542e-01, 0.0
1389, 8.0000000e-03, 1.9723542e-01, 0.0
1390, 8.5000000e-03, 1.9723542e-01, 0.0
1391, 9.0000000e-03, 1.9723542e-01, 0.0
1392, 9.5000000e-03, 1.9723542e-01, 0.0
1393, 1.0000000e-02, 1.9723542e-01, 0.0
1394, 1.0500000e-02, 1.9723542e-01, 0.0
1395, 1.1000000e-02, 1.9723542e-01, 0.0
1396, 1.1500000e-02, 1.9723542e-01, 0.0
1397, 1.2000000e-02, 1.9723542e-01, 0.0
1398, 1.2500000e-02, 1.9723542e-01, 0.0
1399, 1.3000000e-02, 1.9723542e-01, 0.0
1400, 1.3353586e-02, 1.9723542e-01, 0.0
1401, 1.3500000e-02, 1.9723542e-01, 0.0
1402, 1.4000000e-02, 1.9723542e-01, 0.0
1403, 1.4353586e-02, 1.9723542e-01, 0.0
1404, 1.4500000e-02, 1.9723542e-01, 0.0
1405, 1.5000000e-02, 1.9723542e-01, 0.0
1406, 1.5500000e-02, 1.9723542e-01, 0.0
1407, 1.6000000e-02, 1.9723542e-01, 0.0
1408, 1.6500000e-02, 1.9723542e-01, 0.0
1409, 1.7000000e-02, 1.9723542e-01, 0.0
1410, 1.7500000e-02, 1.9723542e-01, 0.0
1411, 1.8000000e-02, 1.9723542e-01, 0.0
1412, 1.8500000e-02, 1.9723542e-01, 0.0
1413, 1.9000000e-02, 1.9723542e-01, 0.0
1414, 1.9500000e-02, 1.9723542e-01, 0.0
1415, 2.0000000e-02, 1.9723542e-01, 0.0
1416, 2.0500000e-02, 1.9723542e-01, 0.0
1417, 2.1000000e-02, 1.9723542e-01, 0.0
1418, 2.1500000e-02, 1.9723542e-01, 0.0
1419, 2.2000000e-02, 1.9723542e-01, 0.0
1420, 2.2500000e-02, 1.9723542e-01, 0.0
1421, 2.3000000e-02, 1.9723542e-01, 0.0
1422, 2.3500000e-02, 1.9723542e-01, 0.0
1423, 2.4000000e-02, 1.9723542e-01, 0.0
1424, 2.4500000e-02, 1.9723542e-01, 0.0
1425, 2.5000000e-02, 1.9723542e-01, 0.0
1426, 2.5500000e-02, 1.9723542e-01, 0.0
1427, 2.6000000e-02, 1.9723542e-01, 0.0
1428, 2.6500000e-02, 1.9723542e-01, 0.0
1429, 2.7000000e-02, 1.9723542e-01, 0.0
1430, 2.7500000e-02, 1.9723542e-01, 0.0
1431, 2.7931476e-02, 1.9723542e-01, 0.0
1432, 2.8000000e-02, 1.9723542e-01, 0.0
1433, 2.8500000e-02, 1.9723542e-01, 0.0
1434, 2.9000000e-02, 1.9723542e-01, 0.0
1435, 2.9500000e-02, 1.9723542e-01, 0.0
1436, 3.0000000e-02, 1.9723542e-01, 0.0
1437, 3.0500000e-02, 1.9723542e-01, 0.0
1438, 3.1000000e-02, 1.9723542e-01, 0.0
1439, 3.1500000e-02, 1.9723542e-01, 0.0
1440, 3.2000000e-02, 1.9723542e-01, 0.0
1441, 3.2121198e-02, 1.9723542e-01, 0.0
1442, 3.2500000e-02, 1.9723542e-01, 0.0
1443, 3.3000000e-02, 1.9723542e-01, 0.0
1444, 3.3500000e-02, 1.9723542e-01, 0.0
1445, 3.4000000e-02, 1.9723542e-01, 0.0
1446, 3.4500000e-02, 1.9723542e-01, 0.0
1447, 3.4914345e-02, 1.9723542e-01, 0.0
1448, 1.0000000e-03, 1.9773542e-01, 0.0
1449, 5.0000000e-04, 1.9773542e-01, 0.0
1450, 1.5000000e-03, 1.9773542e-01, 0.0
1451, 2.0000000e-03, 1.9773542e-01, 0.0
1452, 2.5000000e-03, 1.9773542e-01, 0.0
1453, 3.0000000e-03, 1.9773542e-01, 0.0
1454, 3.5000000e-03, 1.9773542e-01, 0.0
1455, 4.0000000e-03, 1.9773542e-01, 0.0
1456, 4.5000000e-03, 1.9773542e-01, 0.0
1457, 5.0000000e-03, 1.9773542e-01, 0.0
1458, 5.5000000e-03, 1.9773542e-01, 0.0
1459, 6.0000000e-03, 1.9773542e-01, 0.0
1460, 6.5000000e-03, 1.9773542e-01, 0.0
1461, 7.0000000e-03, 1.9773542e-01, 0.0
1462, 7.5000000e-03, 1.9773542e-01, 0.0
1463, 8.0000000e-03, 1.9773542e-01, 0.0
1464, 8.5000000e-03, 1.9773542e-01, 0.0
1465, 9.0000000e-03, 1.9773542e-01, 0.0
1466, 9.5000000e-03, 1.9773542e-01, 0.0
1467, 1.0000000e-02, 1.9773542e-01, 0.0
1468, 1.0500000e-02, 1.9773542e-01, 0.0
1469, 1.1000000e-02, 1.9773542e-01, 0.0
1470, 1.1500000e-02, 1.9773542e-01, 0.0
1471, 1.2000000e-02, 1.9773542e-01, 0.0
1472, 1.2500000e-02, 1.9773542e-01, 0.0
1473, 1.3000000e-02, 1.9773542e-01, 0.0
1474, 1.3353586e-02, 1.9773542e-01, 0.0
1475, 1.3500000e-02, 1.9773542e-01, 0.0
1476, 1.4000000e-02, 1.9773542e-01, 0.0
1477, 1.4353586e-02, 1.9773542e-01, 0.0
1478, 1.4500000e-02, 1.9773542e-01, 0.0
1479, 1.5000000e-02, 1.9773542e-01, 0.0
1480, 1.5500000e-02, 1.9773542e-01, 0.0
1481, 1.6000000e-02, 1.9773542e-01, 0.0
1482, 1.6500000e-02, 1.9773542e-01, 0.0
1483, 1.7000000e-02, 1.9773542e-01, 0.0
1484, 1.7500000e-02, 1.9773542e-01, 0.0
1485, 1.8000000e-02, 1.9773542e-01, 0.0
1486, 1.8500000e-02, 1.9773542e-01, 0.0
1487, 1.9000000e-02, 1.9773542e-01, 0.0
1488, 1.9500000e-02, 1.9773542e-01, 0.0
1489, 2.0000000e-02, 1.9773542e-01, 0.0
1490, 2.0500000e-02, 1.9773542e-01, 0.0
1491, 2.1000000e-02, 1.9773542e-01, 0.0
1492, 2.1500000e-02, 1.9773542e-01, 0.0
1493, 2.2000000e-02, 1.9773542e-01, 0.0
1494, 2.2500000e-02, 1.9773542e-01, 0.0
1495, 2.3000000e-02, 1.9773542e-01, 0.0
1496, 2.3500000e-02, 1.9773542e-01, 0.0
1497, 2.4000000e-02, 1.9773542e-01, 0.0
1498, 2.4500000e-02, 1.9773542e-01, 0.0
1499, 2.5000000e-02, 1.9773542e-01, 0.0
1500, 2.5500000e-02, 1.9773542e-01, 0.0
1501, 2.6000000e-02, 1.9773542e-01, 0.0
1502, 2.6500000e-02, 1.9773542e-01, 0.0
1503, 2.7000000e-02, 1.9773542e-01, 0.0
1504, 2.7500000e-02, 1.9773542e-01, 0.0
1505, 2.7931476e-02, 1.9773542e-01, 0.0
1506, 2.8000000e-02, 1.9773542e-01, 0.0
1507, 2.8500000e-02, 1.9773542e-01, 0.0
1508, 2.9000000e-02, 1.9773542e-01, 0.0
1509, 2.9500000e-02, 1.9773542e-01, 0.0
1510, 3.0000000e-02, 1.9773542e-01, 0.0
1511, 3.0500000e-02, 1.9773542e-01, 0.0
1512, 3.1000000e-02, 1.9773542e-01, 0.0
1513, 3.1500000e-02, 1.9773542e-01, 0.0
1514, 3.2000000e-02, 1.9773542e-01, 0.0
1515, 3.2121198e-02, 1.9773542e-01, 0.0
1516, 3.2500000e-02, 1.9773542e-01, 0.0
1517, 3.3000000e-02, 1.9773542e-01, 0.0
1518, 3.3500000e-02, 1.9773542e-01, 0.0
1519, 3.4000000e-02, 1.9773542e-01, 0.0
1520, 3.4500000e-02, 1.9773542e-01, 0.0
1521, 3.4914345e-02, 1.9773542e-01, 0.0
1522, 1.0000000e-03, 1.9823542e-01, 0.0
1523, 5.0000000e-04, 1.9823542e-01, 0.0
1524, 1.5000000e-03, 1.9823542e-01, 0.0
1525, 2.0000000e-03, 1.9823542e-01, 0.0
1526, 2.5000000e-03, 1.9823542e-01, 0.0
1527, 3.0000000e-03, 1.9823542e-01, 0.0
1528, 3.5000000e-03, 1.9823542e-01, 0.0
1529, 4.0000000e-03, 1.9823542e-01, 0.0
1530, 4.5000000e-03, 1.9823542e-01, 0.0
1531, 5.0000000e-03, 1.9823542e-01, 0.0
1532, 5.5000000e-03, 1.9823542e-01, 0.0
1533, 6.0000000e-03, 1.9823542e-01, 0.0
1534, 6.5000000e-03, 1.9823542e-01, 0.0
1535, 7.0000000e-03, 1.9823542e-01, 0.0
1536, 7.5000000e-03, 1.9823542e-01, 0.0
1537, 8.0000000e-03, 1.9823542e-01, 0.0
1538, 8.5000000e-03, 1.9823542e-01, 0.0
1539, 9.0000000e-03, 1.9823542e-01, 0.0
1540, 9.5000000e-03, 1.9823542e-01, 0.0
1541, 1.0000000e-02, 1.9823542e-01, 0.0
1542, 1.0500000e-02, 1.9823542e-01, 0.0
1543, 1.1000000e-02, 1.9823542e-01, 0.0
1544, 1.1500000e-02, 1.9823542e-01, 0.0
1545, 1.2000000e-02, 1.9823542e-01, 0.0
1546, 1.2500000e-02, 1.9823542e-01, 0.0
1547, 1.3000000e-02, 1.9823542e-01, 0.0
1548, 1.3353586e-02, 1.9823542e-01, 0.0
1549, 1.3500000e-02, 1.9823542e-01, 0.0
1550, 1.4000000e-02, 1.9823542e-01, 0.0
1551, 1.4353586e-02, 1.9823542e-01, 0.0
1552, 1.4500000e-02, 1.9823542e-01, 0.0
1553, 1.5000000e-02, 1.9823542e-01, 0.0
1554, 1.5500000e-02, 1.9823542e-01, 0.0
1555, 1.6000000e-02, 1.9823542e-01, 0.0
1556, 1.6500000e-02, 1.9823542e-01, 0.0
1557, 1.7000000e-02, 1.9823542e-01, 0.0
1558, 1.7500000e-02, 1.9823542e-01, 0.0
1559, 1.8000000e-02, 1.9823542e-01, 0.0
1560, 1.8500000e-02, 1.9823542e-01, 0.0
1561, 1.9000000e-02, 1.9823542e-01, 0.0
1562, 1.9500000e-02, 1.9823542e-01, 0.0
1563, 2.0000000e-02, 1.9823542e-01, 0.0
1564, 2.0500000e-02, 1.9823542e-01, 0.0
1565, 2.1000000e-02, 1.9823542e-01, 0.0
1566, 2.1500000e-02, 1.9823542e-01, 0.0
1567, 2.2000000e-02, 1.9823542e-01, 0.0
1568, 2.2500000e-02, 1.9823542e-01, 0.0
1569, 2.3000000e-02, 1.9823542e-01, 0.0
1570, 2.3500000e-02, 1.9823542e-01, 0.0
1571, 2.4000000e-02, 1.9823542e-01, 0.0
1572, 2.4500000e-02, 1.9823542e-01, 0.0
1573, 2.5000000e-02, 1.9823542e-01, 0.0
1574, 2.5500000e-02, 1.9823542e-01, 0.0
1575, 2.6000000e-02, 1.9823542e-01, 0.0
1576, 2.6500000e-02, 1.9823542e-01, 0.0
1577, 2.7000000e-02, 1.9823542e-01, 0.0
1578, 2.7500000e-02, 1.9823542e-01, 0.0
1579, 2.7931476e-02, 1.9823542e-01, 0.0
1580, 2.8000000e-02, 1.9823542e-01, 0.0
1581, 2.8500000e-02, 1.9823542e-01, 0.0
1582, 2.9000000e-02, 1.9823542e-01, 0.0
1583, 2.9500000e-02, 1.9823542e-01, 0.0
1584, 3.0000000e-02, 1.9823542e-01, 0.0
1585, 3.0500000e-02, 1.9823542e-01, 0.0
1586, 3.1000000e-02, 1.9823542e-01, 0.0
1587, 3.1500000e-02, 1.9823542e-01, 0.0
1588, 3.2000000e-02, 1.9823542e-01, 0.0
1589, 3.2121198e-02, 1.9823542e-01, 0.0
1590, 3.2500000e-02, 1.9823542e-01, 0.0
1591, 3.3000000e-02, 1.9823542e-01, 0.0
1592, 3.3500000e-02, 1.9823542e-01, 0.0
1593, 3.4000000e-02, 1.9823542e-01, 0.0
1594, 3.4500000e-02, 1.9823542e-01, 0.0
1595, 3.4914345e-02, 1.9823542e-01, 0.0
1596, 1.0000000e-03, 1.9873542e-01, 0.0
1597, 5.0000000e-04, 1.9873542e-01, 0.0
1598, 1.5000000e-03, 1.9873542e-01, 0.0
1599, 2.0000000e-03, 1.9873542e-01, 0.0
1600, 2.5000000e-03, 1.9873542e-01, 0.0
1601, 3.0000000e-03, 1.9873542e-01, 0.0
1602, 3.5000000e-03, 1.9873542e-01, 0.0
1603, 4.0000000e-03, 1.9873542e-01, 0.0
1604, 4.5000000e-03, 1.9873542e-01, 0.0
1605, 5.0000000e-03, 1.9873542e-01, 0.0
1606, 5.5000000e-03, 1.9873542e-01, 0.0
1607, 6.0000000e-03, 1.9873542e-01, 0.0
1608, 6.5000000e-03, 1.9873542e-01, 0.0
1609, 7.0000000e-03, 1.9873542e-01, 0.0
1610, 7.5000000e-03, 1.9873542e-01, 0.0
1611, 8.0000000e-03, 1.9873542e-01, 0.0
1612, 8.5000000e-03, 1.9873542e-01, 0.0
1613, 9.0000000e-03, 1.9873542e-01, 0.0
1614, 9.5000000e-03, 1.9873542e-01, 0.0
1615, 1.0000000e-02, 1.9873542e-01, 0.0
1616, 1.0500000e-02, 1.9873542e-01, 0.0
1617, 1.1000000e-02, 1.9873542e-01, 0.0
1618, 1.1500000e-02, 1.9873542e-01, 0.0
1619, 1.2000000e-02, 1.9873542e-01, 0.0
1620, 1.2500000e-02, 1.9873542e-01, 0.0
1621, 1.3000000e-02, 1.9873542e-01, 0.0
1622, 1.3353586e-02, 1.9873542e-01, 0.0
1623, 1.3500000e-02, 1.9873542e-01, 0.0
1624, 1.4000000e-02, 1.9873542e-01, 0.0
1625, 1.4353586e-02, 1.9873542e-01, 0.0
1626, 1.4500000e-02, 1.9873542e-01, 0.0
1627, 1.5000000e-02, 1.9873542e-01, 0.0
1628, 1.5500000e-02, 1.9873542e-01, 0.0
1629, 1.6000000e-02, 1.9873542e-01, 0.0
1630, 1.6500000e-02, 1.9873542e-01, 0.0
1631, 1.7000000e-02, 1.9873542e-01, 0.0
1632, 1.7500000e-02, 1.9873542e-01, 0.0
1633, 1.8000000e-02, 1.9873542e-01, 0.0
1634, 1.8500000e-02, 1.9873542e-01, 0.0
1635, 1.9000000e-02, 1.9873542e-01, 0.0
1636, 1.9500000e-02, 1.9873542e-01, 0.0
1637, 2.0000000e-02, 1.9873542e-01, 0.0
1638, 2.0500000e-02, 1.9873542e-01, 0.0
1639, 2.1000000e-02, 1.9873542e-01, 0.0
1640, 2.1500000e-02, 1.9873542e-01, 0.0
1641, 2.2000000e-02, 1.9873542e-01, 0.0
1642, 2.2500000e-02, 1.9873542e-01, 0.0
1643, 2.3000000e-02, 1.9873542e-01, 0.0
1644, 2.3500000e-02, 1.9873542e-01, 0.0
1645, 2.4000000e-02, 1.9873542e-01, 0.0
1646, 2.4500000e-02, 1.9873542e-01, 0.0
1647, 2.5000000e-02, 1.9873542e-01, 0.0
1648, 2.5500000e-02, 1.9873542e-01, 0.0
1649, 2.6000000e-02, 1.9873542e-01, 0.0
1650, 2.6500000e-02, 1.9873542e-01, 0.0
1651, 2.7000000e-02, 1.9873542e-01, 0.0
1652, 2.7500000e-02, 1.9873542e-01, 0.0
1653, 2.7931476e-02, 1.9873542e-01, 0.0
1654, 2.8000000e-02, 1.9873542e-01, 0.0
1655, 2.8500000e-02, 1.9873542e-01, 0.0
1656, 2.9000000e-02, 1.9873542e-01, 0.0
1657, 2.9500000e-02, 1.9873542e-01, 0.0
1658, 3.0000000e-02, 1.9873542e-01, 0.0
1659, 3.0500000e-02, 1.9873542e-01, 0.0
1660, 3.1000000e-02, 1.9873542e-01, 0.0
1661, 3.1500000e-02, 1.9873542e-01, 0.0
1662, 3.2000000e-02, 1.9873542e-01, 0.0
1663, 3.2121198e-02, 1.9873542e-01, 0.0
1664, 3.2500000e-02, 1.9873542e-01, 0.0
1665, 3.3000000e-02, 1.9873542e-01, 0.0
1666, 3.3500000e-02, 1.9873542e-01, 0.0
1667, 3.4000000e-02, 1.9873542e-01, 0.0
1668, 3.4500000e-02, 1.9873542e-01, 0.0
1669, 3.4914345e-02, 1.9873542e-01, 0.0
1670, 1.0000000e-03, 1.9923542e-01, 0.0
1671, 5.0000000e-04, 1.9923542e-01, 0.0
1672, 1.5000000e-03, 1.9923542e-01, 0.0
1673, 2.0000000e-03, 1.9923542e-01, 0.0
1674, 2.5000000e-03, 1.9923542e-01, 0.0
1675, 3.0000000e-03, 1.9923542e-01, 0.0
1676, 3.5000000e-03, 1.9923542e-01, 0.0
1677, 4.0000000e-03, 1.9923542e-01, 0.0
1678, 4.5000000e-03, 1.9923542e-01, 0.0
1679, 5.0000000e-03, 1.9923542e-01, 0.0
1680, 5.5000000e-03, 1.9923542e-01, 0.0
1681, 6.0000000e-03, 1.9923542e-01, 0.0
1682, 6.5000000e-03, 1.9923542e-01, 0.0
1683, 7.0000000e-03, 1.9923542e-01, 0.0
1684, 7.5000000e-03, 1.9923542e-01, 0.0
1685, 8.0000000e-03, 1.9923542e-01, 0.0
1686, 8.5000000e-03, 1.9923542e-01, 0.0
1687, 9.0000000e-03, 1.9923542e-01, 0.0
1688, 9.5000000e-03, 1.9923542e-01, 0.0
1689, 1.0000000e-02, 1.9923542e-01, 0.0
1690, 1.0500000e-02, 1.9923542e-01, 0.0
1691, 1.1000000e-02, 1.9923542e-01, 0.0
1692, 1.1500000e-02, 1.9923542e-01, 0.0
1693, 1.2000000e-02, 1.9923542e-01, 0.0
1694, 1.2500000e-02, 1.9923542e-01, 0.0
1695, 1.3000000e-02, 1.9923542e-01, 0.0
1696, 1.3353586e-02, 1.9923542e-01, 0.0
1697, 1.3500000e-02, 1.9923542e-01, 0.0
1698, 1.4000000e-02, 1.9923542e-01, 0.0
1699, 1.4353586e-02, 1.9923542e-01, 0.0
1700, 1.4500000e-02, 1.9923542e-01, 0.0
1701, 1.5000000e-02, 1.9923542e-01, 0.0
1702, 1.5500000e-02, 1.9923542e-01, 0.0
1703, 1.6000000e-02, 1.9923542e-01, 0.0
1704, 1.6500000e-02, 1.9923542e-01, 0.0
1705, 1.7000000e-02, 1.9923542e-01, 0.0
1706, 1.7500000e-02, 1.9923542e-01, 0.0
1707, 1.8000000e-02, 1.9923542e-01, 0.0
1708, 1.8500000e-02, 1.9923542e-01, 0.0
1709, 1.9000000e-02, 1.9923542e-01, 0.0
1710, 1.9500000e-02, 1.9923542e-01, 0.0
1711, 2.0000000e-02, 1.9923542e-01, 0.0
1712, 2.0500000e-02, 1.9923542e-01, 0.0
1713, 2.1000000e-02, 1.9923542e-01, 0.0
1714, 2.1500000e-02, 1.9923542e-01, 0.0
1715, 2.2000000e-02, 1.9923542e-01, 0.0
1716, 2.2500000e-02, 1.9923542e-01, 0.0
1717, 2.3000000e-02, 1.9923542e-01, 0.0
1718, 2.3500000e-02, 1.9923542e-01, 0.0
1719, 2.4000000e-02, 1.9923542e-01, 0.0
1720, 2.4500000e-02, 1.9923542e-01, 0.0
1721, 2.5000000e-02, 1.9923542e-01, 0.0
1722, 2.5500000e-02, 1.9923542e-01, 0.0
1723, 2.6000000e-02, 1.9923542e-01, 0.0
1724, 2.6500000e-02, 1.9923542e-01, 0.0
1725, 2.7000000e-02, 1.9923542e-01, 0.0
1726, 2.7500000e-02, 1.9923542e-01, 0.0
1727, 2.7931476e-02, 1.9923542e-01, 0.0
1728, 2.8000000e-02, 1.9923542e-01, 0.0
1729, 2.8500000e-02, 1.9923542e-01, 0.0
1730, 2.9000000e-02, 1.9923542e-01, 0.0
1731, 2.9500000e-02, 1.9923542e-01, 0.0
1732, 3.0000000e-02, 1.9923542e-01, 0.0
1733, 3.0500000e-02, 1.9923542e-01, 0.0
1734, 3.1000000e-02, 1.9923542e-01, 0.0
1735, 3.1500000e-02, 1.9923542e-01, 0.0
1736, 3.2000000e-02, 1.9923542e-01, 0.0
1737, 3.2121198e-02, 1.9923542e-01, 0.0
1738, 3.2500000e-02, 1.9923542e-01, 0.0
1739, 3.3000000e-02, 1.9923542e-01, 0.0
1740, 3.3500000e-02, 1.9923542e-01, 0.0
1741, 3.4000000e-02, 1.9923542e-01, 0.0
1742, 3.4500000e-02, 1.9923542e-01, 0.0
1743, 3.4914345e-02, 1.9923542e-01, 0.0
1744, 1.0000000e-03, 1.9973542e-01, 0.0
1745, 5.0000000e-04, 1.9973542e-01, 0.0
1746, 1.5000000e-03, 1.9973542e-01, 0.0
1747, 2.0000000e-03, 1.9973542e-01, 0.0
1748, 2.5000000e-03, 1.9973542e-01, 0.0
1749, 3.0000000e-03, 1.9973542e-01, 0.0
1750, 3.5000000e-03, 1.9973542e-01, 0.0
1751, 4.0000000e-03, 1.9973542e-01, 0.0
1752, 4.5000000e-03, 1.9973542e-01, 0.0
1753, 5.0000000e-03, 1.9973542e-01, 0.0
1754, 5.5000000e-03, 1.9973542e-01, 0.0
1755, 6.0000000e-03, 1.9973542e-01, 0.0
1756, 6.5000000e-03, 1.9973542e-01, 0.0
1757, 7.0000000e-03, 1.9973542e-01, 0.0
1758, 7.5000000e-03, 1.9973542e-01, 0.0
1759, 8.0000000e-03, 1.9973542e-01, 0.0
1760, 8.5000000e-03, 1.9973542e-01, 0.0
1761, 9.0000000e-03, 1.9973542e-01, 0.0
1762, 9.5000000e-03, 1.9973542e-01, 0.0
1763, 1.0000000e-02, 1.9973542e-01, 0.0
1764, 1.0500000e-02, 1.9973542e-01, 0.0
1765, 1.1000000e-02, 1.9973542e-01, 0.0
1766, 1.1500000e-02, 1.9973542e-01, 0.0
1767, 1.2000000e-02, 1.9973542e-01, 0.0
1768, 1.2500000e-02, 1.9973542e-01, 0.0
1769, 1.3000000e-02, 1.9973542e-01, 0.0
1770, 1.3353586e-02, 1.9973542e-01, 0.0
1771, 1.3500000e-02, 1.9973542e-01, 0.0
1772, 1.4000000e-02, 1.9973542e-01, 0.0
1773, 1.4353586e-02, 1.9973542e-01, 0.0
1774, 1.4500000e-02, 1.9973542e-01, 0.0
1775, 1.5000000e-02, 1.9973542e-01, 0.0
1776, 1.5500000e-02, 1.9973542e-01, 0.0
1777, 1.6000000e-02, 1.9973542e-01, 0.0
1778, 1.6500000e-02, 1.9973542e-01, 0.0
1779, 1.7000000e-02, 1.9973542e-01, 0.0
1780, 1.7500000e-02, 1.9973542e-01, 0.0
1781, 1.8000000e-02, 1.9973542e-01, 0.0
1782, 1.8500000e-02, 1.9973542e-01, 0.0
1783, 1.9000000e-02, 1.9973542e-01, 0.0
1784, 1.9500000e-02, 1.9973542e-01, 0.0
1785, 2.0000000e-02, 1.9973542e-01, 0.0
1786, 2.0500000e-02, 1.9973542e-01, 0.0
1787, 2.1000000e-02, 1.9973542e-01, 0.0
1788, 2.1500000e-02, 1.9973542e-01, 0.0
1789, 2.2000000e-02, 1.9973542e-01, 0.0
1790, 2.2500000e-02, 1.9973542e-01, 0.0
1791, 2.3000000e-02, 1.9973542e-01, 0.0
1792, 2.3500000e-02, 1.9973542e-01, 0.0
1793, 2.4000000e-02, 1.9973542e-01, 0.0
1794, 2.4500000e-02, 1.9973542e-01, 0.0
1795, 2.5000000e-02, 1.9973542e-01, 0.0
1796, 2.5500000e-02, 1.9973542e-01, 0.0
1797, 2.6000000e-02, 1.9973542e-01, 0.0
1798, 2.6500000e-02, 1.9973542e-01, 0.0
1799, 2.7000000e-02, 1.9973542e-01, 0.0
1800, 2.7500000e-02, 1.9973542e-01, 0.0
1801, 2.7931476e-02, 1.9973542e-01, 0.0
1802, 2.8000000e-02, 1.9973542e-01, 0.0
1803, 2.8500000e-02, 1.9973542e-01, 0.0
1804, 2.9000000e-02, 1.9973542e-01, 0.0
1805, 2.9500000e-02, 1.9973542e-01, 0.0
1806, 3.0000000e-02, 1.9973542e-01, 0.0
1807, 3.0500000e-02, 1.9973542e-01, 0.0
1808, 3.1000000e-02, 1.9973542e-01, 0.0
1809, 3.1500000e-02, 1.9973542e-01, 0.0
1810, 3.2000000e-02, 1.9973542e-01, 0.0
1811, 3.2121198e-02, 1.9973542e-01, 0.0
1812, 3.2500000e-02, 1.9973542e-01, 0.0
1813, 3.3000000e-02, 1.9973542e-01, 0.0
1814, 3.3500000e-02, 1.9973542e-01, 0.0
1815, 3.4000000e-02, 1.9973542e-01, 0.0
1816, 3.4500000e-02, 1.9973542e-01, 0.0
1817, 3.4914345e-02, 1.9973542e-01, 0.0
1818, 1.0000000e-03, 2.0023542e-01, 0.0
1819, 5.0000000e-04, 2.0023542e-01, 0.0
1820, 1.5000000e-03, 2.0023542e-01, 0.0
1821, 2.0000000e-03, 2.0023542e-01, 0.0
1822, 2.5000000e-03, 2.0023542e-01, 0.0
1823, 3.0000000e-03, 2.0023542e-01, 0.0
1824, 3.5000000e-03, 2.0023542e-01, 0.0
1825, 4.0000000e-03, 2.0023542e-01, 0.0
1826, 4.5000000e-03, 2.0023542e-01, 0.0
1827, 5.0000000e-03, 2.0023542e-01, 0.0
1828, 5.5000000e-03, 2.0023542e-01, 0.0
1829, 6.0000000e-03, 2.0023542e-01, 0.0
1830, 6.5000000e-03, 2.0023542e-01, 0.0
1831, 7.0000000e-03, 2.0023542e-01, 0.0
1832, 7.5000000e-03, 2.0023542e-01, 0.0
1833, 8.0000000e-03, 2.0023542e-01, 0.0
1834, 8.5000000e-03, 2.0023542e-01, 0.0
1835, 9.0000000e-03, 2.0023542e-01, 0.0
1836, 9.5000000e-03, 2.0023542e-01, 0.0
1837, 1.0000000e-02, 2.0023542e-01, 0.0
1838, 1.0500000e-02, 2.0023542e-01, 0.0
1839, 1.1000000e-02, 2.0023542e-01, 0.0
1840, 1.1500000e-02, 2.0023542e-01, 0.0
1841, 1.2000000e-02, 2.0023542e-01, 0.0
1842, 1.2500000e-02, 2.0023542e-01, 0.0
1843, 1.3000000e-02, 2.0023542e-01, 0.0
1844, 1.3353586e-02, 2.0023542e-01, 0.0
1845, 1.3500000e-02, 2.0023542e-01, 0.0
1846, 1.4000000e-02, 2.0023542e-01, 0.0
1847, 1.4353586e-02, 2.0023542e-01, 0.0
1848, 1.4500000e-02, 2.0023542e-01, 0.0
1849, 1.5000000e-02, 2.0023542e-01, 0.0
1850, 1.5500000e-02, 2.0023542e-01, 0.0
1851, 1.6000000e-02, 2.0023542e-01, 0.0
1852, 1.6500000e-02, 2.0023542e-01, 0.0
1853, 1.7000000e-02, 2.0023542e-01, 0.0
1854, 1.7500000e-02, 2.0023542e-01, 0.0
1855, 1.8000000e-02, 2.0023542e-01, 0.0
1856, 1.8500000e-02, 2.0023542e-01, 0.0
1857, 1.9000000e-02, 2.0023542e-01, 0.0
1858, 1.9500000e-02, 2.0023542e-01, 0.0
1859, 2.0000000e-02, 2.0023542e-01, 0.0
1860, 2.0500000e-02, 2.0023542e-01, 0.0
1861, 2.1000000e-02, 2.0023542e-01, 0.0
1862, 2.1500000e-02, 2.0023542e-01, 0.0
1863, 2.2000000e-02, 2.0023542e-01, 0.0
1864, 2.2500000e-02, 2.0023542e-01, 0.0
1865, 2.3000000e-02, 2.0023542e-01, 0.0
1866, 2.3500000e-02, 2.0023542e-01, 0.0
1867, 2.4000000e-02, 2.0023542e-01, 0.0
1868, 2.4500000e-02, 2.0023542e-01, 0.0
1869, 2.5000000e-02, 2.0023542e-01, 0.0
1870, 2.5500000e-02, 2.0023542e-01, 0.0
1871, 2.6000000e-02, 2.0023542e-01, 0.0
1872, 2.6500000e-02, 2.0023542e-01, 0.0
1873, 2.7000000e-02, 2.0023542e-01, 0.0
1874, 2.7500000e-02, 2.0023542e-01, 0.0
1875, 2.7931476e-02, 2.0023542e-01, 0.0
1876, 2.8000000e-02, 2.0023542e-01, 0.0
1877, 2.8500000e-02, 2.0023542e-01, 0.0
1878, 2.9000000e-02, 2.0023542e-01, 0.0
1879, 2.9500000e-02, 2.0023542e-01, 0.0
1880, 3.0000000e-02, 2.0023542e-01, 0.0
1881, 3.0500000e-02, 2.0023542e-01, 0.0
1882, 3.1000000e-02, 2.0023542e-01, 0.0
1883, 3.1500000e-02, 2.0023542e-01, 0.0
1884, 3.2000000e-02, 2.0023542e-01, 0.0
1885, 3.2121198e-02, 2.0023542e-01, 0.0
1886, 3.2500000e-02, 2.0023542e-01, 0.0
1887, 3.3000000e-02, 2.0023542e-01, 0.0
1888, 3.3500000e-02, 2.0023542e-01, 0.0
1889, 3.4000000e-02, 2.0023542e-01, 0.0
1890, 3.4500000e-02, 2.0023542e-01, 0.0
1891, 3.4914345e-02, 2.0023542e-01, 0.0
1892, 1.0000000e-03, 2.0073542e-01, 0.0
1893, 5.0000000e-04, 2.0073542e-01, 0.0
1894, 1.5000000e-03, 2.0073542e-01, 0.0
1895, 2.0000000e-03, 2.0073542e-01, 0.0
1896, 2.5000000e-03, 2.0073542e-01, 0.0
1897, 3.0000000e-03, 2.0073542e-01, 0.0
1898, 3.5000000e-03, 2.0073542e-01, 0.0
1899, 4.0000000e-03, 2.0073542e-01, 0.0
1900, 4.5000000e-03, 2.0073542e-01, 0.0
1901, 5.0000000e-03, 2.0073542e-01, 0.0
1902, 5.5000000e-03, 2.0073542e-01, 0.0
1903, 6.0000000e-03, 2.0073542e-01, 0.0
1904, 6.5000000e-03, 2.0073542e-01, 0.0
1905, 7.0000000e-03, 2.0073542e-01, 0.0
1906, 7.5000000e-03, 2.0073542e-01, 0.0
1907, 8.0000000e-03, 2.0073542e-01, 0.0
1908, 8.5000000e-03, 2.0073542e-01, 0.0
1909, 9.0000000e-03, 2.0073542e-01, 0.0
1910, 9.5000000e-03, 2.0073542e-01, 0.0
1911, 1.0000000e-02, 2.0073542e-01, 0.0
1912, 1.0500000e-02, 2.0073542e-01, 0.0
1913, 1.1000000e-02, 2.0073542e-01, 0.0
1914, 1.1500000e-02, 2.0073542e-01, 0.0
1915, 1.2000000e-02, 2.0073542e-01, 0.0
1916, 1.2500000e-02, 2.0073542e-01, 0.0
1917, 1.3000000e-02, 2.0073542e-01, 0.0
1918, 1.3353586e-02, 2.0073542e-01, 0.0
1919, 1.3500000e-02, 2.0073542e-01, 0.0
1920, 1.4000000e-02, 2.0073542e-01, 0.0
1921, 1.4353586e-02, 2.0073542e-01, 0.0
1922, 1.4500000e-02, 2.0073542e-01, 0.0
1923, 1.5000000e-02, 2.0073542e-01, 0.0
1924, 1.5500000e-02, 2.0073542e-01, 0.0
1925, 1.6000000e-02, 2.0073542e-01, 0.0
1926, 1.6500000e-02, 2.0073542e-01, 0.0
1927, 1.7000000e-02, 2.0073542e-01, 0.0
1928, 1.7500000e-02, 2.0073542e-01, 0.0
1929, 1.8000000e-02, 2.0073542e-01, 0.0
1930, 1.8500000e-02, 2.0073542e-01, 0.0
1931, 1.9000000e-02, 2.0073542e-01, 0.0
1932, 1.9500000e-02, 2.0073542e-01, 0.0
1933, 2.0000000e-02, 2.0073542e-01, 0.0
1934, 2.0500000e-02, 2.0073542e-01, 0.0
1935, 2.1000000e-02, 2.0073542e-01, 0.0
1936, 2.1500000e-02, 2.0073542e-01, 0.0
1937, 2.2000000e-02, 2.0073542e-01, 0.0
1938, 2.2500000e-02, 2.0073542e-01, 0.0
1939, 2.3000000e-02, 2.0073542e-01, 0.0
1940, 2.3500000e-02, 2.0073542e-01, 0.0
1941, 2.4000000e-02, 2.0073542e-01, 0.0
1942, 2.4500000e-02, 2.0073542e-01, 0.0
1943, 2.5000000e-02, 2.0073542e-01, 0.0
1944, 2.5500000e-02, 2.0073542e-01, 0.0
1945, 2.6000000e-02, 2.0073542e-01, 0.0
1946, 2.6500000e-02, 2.0073542e-01, 0.0
1947, 2.7000000e-02, 2.0073542e-01, 0.0
1948, 2.7500000e-02, 2.0073542e-01, 0.0
1949, 2.7931476e-02, 2.0073542e-01, 0.0
1950, 2.8000000e-02, 2.0073542e-01, 0.0
1951, 2.8500000e-02, 2.0073542e-01, 0.0
1952, 2.9000000e-02, 2.0073542e-01, 0.0
1953, 2.9500000e-02, 2.0073542e-01, 0.0
1954, 3.0000000e-02, 2.0073542e-01, 0.0
1955, 3.0500000e-02, 2.0073542e-01, 0.0
1956, 3.1000000e-02, 2.0073542e-01, 0.0
1957, 3.1500000e-02, 2.0073542e-01, 0.0
1958, 3.2000000e-02, 2.0073542e-01, 0.0
1959, 3.2121198e-02, 2.0073542e-01, 0.0
1960, 3.2500000e-02, 2.0073542e-01, 0.0
1961, 3.3000000e-02, 2.0073542e-01, 0.0
1962, 3.3500000e-02, 2.0073542e-01, 0.0
1963, 3.4000000e-02, 2.0073542e-01, 0.0
1964, 3.4500000e-02, 2.0073542e-01, 0.0
1965, 3.4914345e-02, 2.0073542e-01, 0.0
1966, 1.0000000e-03, 2.0123542e-01, 0.0
1967, 5.0000000e-04, 2.0123542e-01, 0.0
1968, 1.5000000e-03, 2.0123542e-01, 0.0
1969, 2.0000000e-03, 2.0123542e-01, 0.0
1970, 2.5000000e-03, 2.0123542e-01, 0.0
1971, 3.0000000e-03, 2.0123542e-01, 0.0
1972, 3.5000000e-03, 2.0123542e-01, 0.0
1973, 4.0000000e-03, 2.0123542e-01, 0.0
1974, 4.5000000e-03, 2.0123542e-01, 0.0
1975, 5.0000000e-03, 2.0123542e-01, 0.0
1976, 5.5000000e-03, 2.0123542e-01, 0.0
1977, 6.0000000e-03, 2.0123542e-01, 0.0
1978, 6.5000000e-03, 2.0123542e-01, 0.0
1979, 7.0000000e-03, 2.0123542e-01, 0.0
1980, 7.5000000e-03, 2.0123542e-01, 0.0
1981, 8.0000000e-03, 2.0123542e-01, 0.0
1982, 8.5000000e-03, 2.0123542e-01, 0.0
1983, 9.0000000e-03, 2.0123542e-01, 0.0
1984, 9.5000000e-03, 2.0123542e-01, 0.0
1985, 1.0000000e-02, 2.0123542e-01, 0.0
1986, 1.0500000e-02, 2.0123542e-01, 0.0
1987, 1.1000000e-02, 2.0123542e-01, 0.0
1988, 1.1500000e-02, 2.0123542e-01, 0.0
1989, 1.2000000e-02, 2.0123542e-01, 0.0
1990, 1.2500000e-02, 2.0123542e-01, 0.0
1991, 1.3000000e-02, 2.0123542e-01, 0.0
1992, 1.3353586e-02, 2.0123542e-01, 0.0
1993, 1.3500000e-02, 2.0123542e-01, 0.0
1994, 1.4000000e-02, 2.0123542e-01, 0.0
1995, 1.4353586e-02, 2.0123542e-01, 0.0
1996, 1.4500000e-02, 2.0123542e-01, 0.0
1997, 1.5000000e-02, 2.0123542e-01, 0.0
1998, 1.5500000e-02, 2.0123542e-01, 0.0
1999, 1.6000000e-02, 2.0123542e-01, 0.0
2000, 1.6500000e-02, 2.0123542e-01, 0.0
2001, 1.7000000e-02, 2.0123542e-01, 0.0
2002, 1.7500000e-02, 2.0123542e-01, 0.0
2003, 1.8000000e-02, 2.0123542e-01, 0.0
2004, 1.8500000e-02, 2.0123542e-01, 0.0
2005, 1.9000000e-02, 2.0123542e-01, 0.0
2006, 1.9500000e-02, 2.0123542e-01, 0.0
2007, 2.0000000e-02, 2.0123542e-01, 0.0
2008, 2.0500000e-02, 2.0123542e-01, 0.0
2009, 2.1000000e-02, 2.0123542e-01, 0.0
2010, 2.1500000e-02, 2.0123542e-01, 0.0
2011, 2.2000000e-02, 2.0123542e-01, 0.0
2012, 2.2500000e-02, 2.0123542e-01, 0.0
2013, 2.3000000e-02, 2.0123542e-01, 0.0
2014, 2.3500000e-02, 2.0123542e-01, 0.0
2015, 2.4000000e-02, 2.0123542e-01, 0.0
2016, 2.4500000e-02, 2.0123542e-01, 0.0
2017, 2.5000000e-02, 2.0123542e-01, 0.0
2018, 2.5500000e-02, 2.0123542e-01, 0.0
2019, 2.6000000e-02, 2.0123542e-01, 0.0
2020, 2.6500000e-02, 2.0123542e-01, 0.0
2021, 2.7000000e-02, 2.0123542e-01, 0.0
2022, 2.7500000e-02, 2.0123542e-01, 0.0
2023, 2.7931476e-02, 2.0123542e-01, 0.0
2024, 2.8000000e-02, 2.0123542e-01, 0.0
2025, 2.8500000e-02, 2.0123542e-01, 0.0
2026, 2.9000000e-02, 2.0123542e-01, 0.0
2027, 2.9500000e-02, 2.0123542e-01, 0.0
2028, 3.0000000e-02, 2.0123542e-01, 0.0
2029, 3.0500000e-02, 2.0123542e-01, 0.0
2030, 3.1000000e-02, 2.0123542e-01, 0.0
2031, 3.1500000e-02, 2.0123542e-01, 0.0
2032, 3.2000000e-02, 2.0123542e-01, 0.0
2033, 3.2121198e-02, 2.0123542e-01, 0.0
2034, 3.2500000e-02, 2.0123542e-01, 0.0
2035, 3.3000000e-02, 2.0123542e-01, 0.0
2036, 3.3500000e-02, 2.0123542e-01, 0.0
2037, 3.4000000e-02, 2.0123542e-01, 0.0
2038, 3.4500000e-02, 2.0123542e-01, 0.0
2039, 3.4914345e-02, 2.0123542e-01, 0.0
2040, 1.0000000e-03, 2.0173542e-01, 0.0
2041, 5.0000000e-04, 2.0173542e-01, 0.0
2042, 1.5000000e-03, 2.0173542e-01, 0.0
2043, 2.0000000e-03, 2.0173542e-01, 0.0
2044, 2.5000000e-03, 2.0173542e-01, 0.0
2045, 3.0000000e-03, 2.0173542e-01, 0.0
2046, 3.5000000e-03, 2.0173542e-01, 0.0
2047, 4.0000000e-03, 2.0173542e-01, 0.0
2048, 4.5000000e-03, 2.0173542e-01, 0.0
2049, 5.0000000e-03, 2.0173542e-01, 0.0
2050, 5.5000000e-03, 2.0173542e-01, 0.0
2051, 6.0000000e-03, 2.0173542e-01, 0.0
2052, 6.5000000e-03, 2.0173542e-01, 0.0
2053, 7.0000000e-03, 2.0173542e-01, 0.0
2054, 7.5000000e-03, 2.0173542e-01, 0.0
2055, 8.0000000e-03, 2.0173542e-01, 0.0
2056, 8.5000000e-03, 2.0173542e-01, 0.0
2057, 9.0000000e-03, 2.0173542e-01, 0.0
2058, 9.5000000e-03, 2.0173542e-01, 0.0
2059, 1.0000000e-02, 2.0173542e-01, 0.0
2060, 1.0500000e-02, 2.0173542e-01, 0.0
2061, 1.1000000e-02, 2.0173542e-01, 0.0
2062, 1.1500000e-02, 2.0173542e-01, 0.0
2063, 1.2000000e-02, 2.0173542e-01, 0.0
2064, 1.2500000e-02, 2.0173542e-01, 0.0
2065, 1.3000000e-02, 2.0173542e-01, 0.0
2066, 1.3353586e-02, 2.0173542e-01, 0.0
2067, 1.3500000e-02, 2.0173542e-01, 0.0
2068, 1.4000000e-02, 2.0173542e-01, 0.0
2069, 1.4353586e-02, 2.0173542e-01, 0.0
2070, 1.4500000e-02, 2.0173542e-01, 0.0
2071, 1.5000000e-02, 2.0173542e-01, 0.0
2072, 1.5500000e-02, 2.0173542e-01, 0.0
2073, 1.6000000e-02, 2.0173542e-01, 0.0
2074, 1.6500000e-02, 2.0173542e-01, 0.0
2075, 1.7000000e-02, 2.0173542e-01, 0.0
2076, 1.7500000e-02, 2.0173542e-01, 0.0
2077, 1.8000000e-02, 2.0173542e-01, 0.0
2078, 1.8500000e-02, 2.0173542e-01, 0.0
2079, 1.9000000e-02, 2.0173542e-01, 0.0
2080, 1.9500000e-02, 2.0173542e-01, 0.0
2081, 2.0000000e-02, 2.0173542e-01, 0.0
2082, 2.0500000e-02, 2.0173542e-01, 0.0
2083, 2.1000000e-02, 2.0173542e-01, 0.0
2084, 2.1500000e-02, 2.0173542e-01, 0.0
2085, 2.2000000e-02, 2.0173542e-01, 0.0
2086, 2.2500000e-02, 2.0173542e-01, 0.0
2087, 2.3000000e-02, 2.0173542e-01, 0.0
2088, 2.3500000e-02, 2.0173542e-01, 0.0
2089, 2.4000000e-02, 2.0173542e-01, 0.0
2090, 2.4500000e-02, 2.0173542e-01, 0.0
2091, 2.5000000e-02, 2.0173542e-01, 0.0
2092, 2.5500000e-02, 2.0173542e-01, 0.0
2093, 2.6000000e-02, 2.0173542e-01, 0.0
2094, 2.6500000e-02, 2.0173542e-01, 0.0
2095, 2.7000000e-02, 2.0173542e-01, 0.0
2096, 2.7500000e-02, 2.0173542e-01, 0.0
2097, 2.7931476e-02, 2.0173542e-01, 0.0
2098, 2.8000000e-02, 2.0173542e-01, 0.0
2099, 2.8500000e-02, 2.0173542e-01, 0.0
2100, 2.9000000e-02, 2.0173542e-01, 0.0
2101, 2.9500000e-02, 2.0173542e-01, 0.0
2102, 3.0000000e-02, 2.0173542e-01, 0.0
2103, 3.0500000e-02, 2.0173542e-01, 0.0
2104, 3.1000000e-02, 2.0173542e-01, 0.0
2105, 3.1500000e-02, 2.0173542e-01, 0.0
2106, 3.2000000e-02, 2.0173542e-01, 0.0
2107, 3.2121198e-02, 2.0173542e-01, 0.0
2108, 3.2500000e-02, 2.0173542e-01, 0.0
2109, 3.3000000e-02, 2.0173542e-01, 0.0
2110, 3.3500000e-02, 2.0173542e-01, 0.0
2111, 3.4000000e-02, 2.0173542e-01, 0.0
2112, 3.4500000e-02, 2.0173542e-01, 0.0
2113, 3.4914345e-02, 2.0173542e-01, 0.0
2114, 1.0000000e-03, 2.0223542e-01, 0.0
2115, 5.0000000e-04, 2.0223542e-01, 0.0
2116, 1.5000000e-03, 2.0223542e-01, 0.0
2117, 2.0000000e-03, 2.0223542e-01, 0.0
2118, 2.5000000e-03, 2.0223542e-01, 0.0
2119, 3.0000000e-03, 2.0223542e-01, 0.0
2120, 3.5000000e-03, 2.0223542e-01, 0.0
2121, 4.0000000e-03, 2.0223542e-01, 0.0
2122, 4.5000000e-03, 2.0223542e-01, 0.0
2123, 5.0000000e-03, 2.0223542e-01, 0.0
2124, 5.5000000e-03, 2.0223542e-01, 0.0
2125, 6.0000000e-03, 2.0223542e-01, 0.0
2126, 6.5000000e-03, 2.0223542e-01, 0.0
2127, 7.0000000e-03, 2.0223542e-01, 0.0
2128, 7.5000000e-03, 2.0223542e-01, 0.0
2129, 8.0000000e-03, 2.0223542e-01, 0.0
2130, 8.5000000e-03, 2.0223542e-01, 0.0
2131, 9.0000000e-03, 2.0223542e-01, 0.0
2132, 9.5000000e-03, 2.0223542e-01, 0.0
2133, 1.0000000e-02, 2.0223542e-01, 0.0
2134, 1.0500000e-02, 2.0223542e-01, 0.0
2135, 1.1000000e-02, 2.0223542e-01, 0.0
2136, 1.1500000e-02, 2.0223542e-01, 0.0
2137, 1.2000000e-02, 2.0223542e-01, 0.0
2138, 1.2500000e-02, 2.0223542e-01, 0.0
2139, 1.3000000e-02, 2.0223542e-01, 0.0
2140, 1.3353586e-02, 2.0223542e-01, 0.0
2141, 1.3500000e-02, 2.0223542e-01, 0.0
2142, 1.4000000e-02, 2.0223542e-01, 0.0
2143, 1.4353586e-02, 2.0223542e-01, 0.0
2144, 1.4500000e-02, 2.0223542e-01, 0.0
2145, 1.5000000e-02, 2.0223542e-01, 0.0
2146, 1.5500000e-02, 2.0223542e-01, 0.0
2147, 1.6000000e-02, 2.0223542e-01, 0.0
2148, 1.6500000e-02, 2.0223542e-01, 0.0
2149, 1.7000000e-02, 2.0223542e-01, 0.0
2150, 1.7500000e-02, 2.0223542e-01, 0.0
2151, 1.8000000e-02, 2.0223542e-01, 0.0
2152, 1.8500000e-02, 2.0223542e-01, 0.0
2153, 1.9000000e-02, 2.0223542e-01, 0.0
2154, 1.9500000e-02, 2.0223542e-01, 0.0
2155, 2.0000000e-02, 2.0223542e-01, 0.0
2156, 2.0500000e-02, 2.0223542e-01, 0.0
2157, 2.1000000e-02, 2.0223542e-01, 0.0
2158, 2.1500000e-02, 2.0223542e-01, 0.0
2159, 2.2000000e-02, 2.0223542e-01, 0.0
2160, 2.2500000e-02, 2.0223542e-01, 0.0
2161, 2.3000000e-02, 2.0223542e-01, 0.0
2162, 2.3500000e-02, 2.0223542e-01, 0.0
2163, 2.4000000e-02, 2.0223542e-01, 0.0
2164, 2.4500000e-02, 2.0223542e-01, 0.0
2165, 2.5000000e-02, 2.0223542e-01, 0.0
2166, 2.5500000e-02, 2.0223542e-01, 0.0
2167, 2.6000000e-02, 2.0223542e-01, 0.0
2168, 2.6500000e-02, 2.0223542e-01, 0.0
2169, 2.7000000e-02, 2.0223542e-01, 0.0
2170, 2.7500000e-02, 2.0223542e-01, 0.0
2171, 2.7931476e-02, 2.0223542e-01, 0.0
2172, 2.8000000e-02, 2.0223542e-01, 0.0
2173, 2.8500000e-02, 2.0223542e-01, 0.0
2174, 2.9000000e-02, 2.0223542e-01, 0.0
2175, 2.9500000e-02, 2.0223542e-01, 0.0
2176, 3.0000000e-02, 2.0223542e-01, 0.0
2177, 3.0500000e-02, 2.0223542e-01, 0.0
2178, 3.1000000e-02, 2.0223542e-01, 0.0
2179, 3.1500000e-02, 2.0223542e-01, 0.0
2180, 3.2000000e-02, 2.0223542e-01, 0.0
2181, 3.2121198e-02, 2.0223542e-01, 0.0
2182, 3.2500000e-02, 2.0223542e-01, 0.0
2183, 3.3000000e-02, 2.0223542e-01, 0.0
2184, 3.3500000e-02, 2.0223542e-01, 0.0
2185, 3.4000000e-02, 2.0223542e-01, 0.0
2186, 3.4500000e-02, 2.0223542e-01, 0.0
2187, 3.4914345e-02, 2.0223542e-01, 0.0
2188, 1.0000000e-03, 2.0273542e-01, 0.0
2189, 5.0000000e-04, 2.0273542e-01, 0.0
2190, 1.5000000e-03, 2.0273542e-01, 0.0
2191, 2.0000000e-03, 2.0273542e-01, 0.0
2192, 2.5000000e-03, 2.0273542e-01, 0.0
2193, 3.0000000e-03, 2.0273542e-01, 0.0
2194, 3.5000000e-03, 2.0273542e-01, 0.0
2195, 4.0000000e-03, 2.0273542e-01, 0.0
2196, 4.5000000e-03, 2.0273542e-01, 0.0
2197, 5.0000000e-03, 2.0273542e-01, 0.0
2198, 5.5000000e-03, 2.0273542e-01, 0.0
2199, 6.0000000e-03, 2.0273542e-01, 0.0
2200, 6.5000000e-03, 2.0273542e-01, 0.0
2201, 7.0000000e-03, 2.0273542e-01, 0.0
2202, 7.5000000e-03, 2.0273542e-01, 0.0
2203, 8.0000000e-03, 2.0273542e-01, 0.0
2204, 8.5000000e-03, 2.0273542e-01, 0.0
2205, 9.0000000e-03, 2.0273542e-01, 0.0
2206, 9.5000000e-03, 2.0273542e-01, 0.0
2207, 1.0000000e-02, 2.0273542e-01, 0.0
2208, 1.0500000e-02, 2.0273542e-01, 0.0
2209, 1.1000000e-02, 2.0273542e-01, 0.0
2210, 1.1500000e-02, 2.0273542e-01, 0.0
2211, 1.2000000e-02, 2.0273542e-01, 0.0
2212, 1.2500000e-02, 2.0273542e-01, 0.0
2213, 1.3000000e-02, 2.0273542e-01, 0.0
2214, 1.3353586e-02, 2.0273542e-01, 0.0
2215, 1.3500000e-02, 2.0273542e-01, 0.0
2216, 1.4000000e-02, 2.0273542e-01, 0.0
2217, 1.4353586e-02, 2.0273542e-01, 0.0
2218, 1.4500000e-02, 2.0273542e-01, 0.0
2219, 1.5000000e-02, 2.0273542e-01, 0.0
2220, 1.5500000e-02, 2.0273542e-01, 0.0
2221, 1.6000000e-02, 2.0273542e-01, 0.0
2222, 1.6500000e-02, 2.0273542e-01, 0.0
2223, 1.7000000e-02, 2.0273542e-01, 0.0
2224, 1.7500000e-02, 2.0273542e-01, 0.0
2225, 1.8000000e-02, 2.0273542e-01, 0.0
2226, 1.8500000e-02, 2.0273542e-01, 0.0
2227, 1.9000000e-02, 2.0273542e-01, 0.0
2228, 1.9500000e-02, 2.0273542e-01, 0.0
2229, 2.0000000e-02, 2.0273542e-01, 0.0
2230, 2.0500000e-02, 2.0273542e-01, 0.0
2231, 2.1000000e-02, 2.0273542e-01, 0.0
2232, 2.1500000e-02, 2.0273542e-01, 0.0
2233, 2.2000000e-02, 2.0273542e-01, 0.0
2234, 2.2500000e-02, 2.0273542e-01, 0.0
2235, 2.3000000e-02, 2.0273542e-01, 0.0
2236, 2.3500000e-02, 2.0273542e-01, 0.0
2237, 2.4000000e-02, 2.0273542e-01, 0.0
2238, 2.4500000e-02, 2.0273542e-01, 0.0
2239, 2.5000000e-02, 2.0273542e-01, 0.0
2240, 2.5500000e-02, 2.0273542e-01, 0.0
2241, 2.6000000e-02, 2.0273542e-01, 0.0
2242, 2.6500000e-02, 2.0273542e-01, 0.0
2243, 2.7000000e-02, 2.0273542e-01, 0.0
2244, 2.7500000e-02, 2.0273542e-01, 0.0
2245, 2.7931476e-02, 2.0273542e-01, 0.0
2246, 2.8000000e-02, 2.0273542e-01, 0.0
2247, 2.8500000e-02, 2.0273542e-01, 0.0
2248, 2.9000000e-02, 2.0273542e-01, 0.0
2249, 2.9500000e-02, 2.0273542e-01, 0.0
2250, 3.0000000e-02, 2.0273542e-01, 0.0
2251, 3.0500000e-02, 2.0273542e-01, 0.0
2252, 3.1000000e-02, 2.0273542e-01, 0.0
2253, 3.1500000e-02, 2.0273542e-01, 0.0
2254, 3.2000000e-02, 2.0273542e-01, 0.0
2255, 3.2121198e-02, 2.0273542e-01, 0.0
2256, 3.2500000e-02, 2.0273542e-01, 0.0
2257, 3.3000000e-02, 2.0273542e-01, 0.0
2258, 3.3500000e-02, 2.0273542e-01, 0.0
2259, 3.4000000e-02, 2.0273542e-01, 0.0
2260, 3.4500000e-02, 2.0273542e-01, 0.0
2261, 3.4914345e-02, 2.0273542e-01, 0.0
2262, 1.0000000e-03, 2.0323542e-01, 0.0
2263, 5.0000000e-04, 2.0323542e-01, 0.0
2264, 1.5000000e-03, 2.0323542e-01, 0.0
2265, 2.0000000e-03, 2.0323542e-01, 0.0
2266, 2.5000000e-03, 2.0323542e-01, 0.0
2267, 3.0000000e-03, 2.0323542e-01, 0.0
2268, 3.5000000e-03, 2.0323542e-01, 0.0
2269, 4.0000000e-03, 2.0323542e-01, 0.0
2270, 4.5000000e-03, 2.0323542e-01, 0.0
2271, 5.0000000e-03, 2.0323542e-01, 0.0
2272, 5.5000000e-03, 2.0323542e-01, 0.0
2273, 6.0000000e-03, 2.0323542e-01, 0.0
2274, 6.5000000e-03, 2.0323542e-01, 0.0
2275, 7.0000000e-03, 2.0323542e-01, 0.0
2276, 7.5000000e-03, 2.0323542e-01, 0.0
2277, 8.0000000e-03, 2.0323542e-01, 0.0
2278, 8.5000000e-03, 2.0323542e-01, 0.0
2279, 9.0000000e-03, 2.0323542e-01, 0.0
2280, 9.5000000e-03, 2.0323542e-01, 0.0
2281, 1.0000000e-02, 2.0323542e-01, 0.0
2282, 1.0500000e-02, 2.0323542e-01, 0.0
2283, 1.1000000e-02, 2.0323542e-01, 0.0
2284, 1.1500000e-02, 2.0323542e-01, 0.0
2285, 1.2000000e-02, 2.0323542e-01, 0.0
2286, 1.2500000e-02, 2.0323542e-01, 0.0
2287, 1.3000000e-02, 2.0323542e-01, 0.0
2288, 1.3353586e-02, 2.0323542e-01, 0.0
2289, 1.3500000e-02, 2.0323542e-01, 0.0
2290, 1.4000000e-02, 2.0323542e-01, 0.0
2291, 1.4353586e-02, 2.0323542e-01, 0.0
2292, 1.4500000e-02, 2.0323542e-01, 0.0
2293, 1.5000000e-02, 2.0323542e-01, 0.0
2294, 1.5500000e-02, 2.0323542e-01, 0.0
2295, 1.6000000e-02, 2.0323542e-01, 0.0
2296, 1.6500000e-02, 2.0323542e-01, 0.0
2297, 1.7000000e-02, 2.0323542e-01, 0.0
2298, 1.7500000e-02, 2.0323542e-01, 0.0
2299, 1.8000000e-02, 2.0323542e-01, 0.0
2300, 1.8500000e-02, 2.0323542e-01, 0.0
2301, 1.9000000e-02, 2.0323542e-01, 0.0
2302, 1.9500000e-02, 2.0323542e-01, 0.0
2303, 2.0000000e-02, 2.0323542e-01, 0.0
2304, 2.0500000e-02, 2.0323542e-01, 0.0
2305, 2.1000000e-02, 2.0323542e-01, 0.0
2306, 2.1500000e-02, 2.0323542e-01, 0.0
2307, 2.2000000e-02, 2.0323542e-01, 0.0
2308, 2.2500000e-02, 2.0323542e-01, 0.0
2309, 2.3000000e-02, 2.0323542e-01, 0.0
2310, 2.3500000e-02, 2.0323542e-01, 0.0
2311, 2.4000000e-02, 2.0323542e-01, 0.0
2312, 2.4500000e-02, 2.0323542e-01, 0.0
2313, 2.5000000e-02, 2.0323542e-01, 0.0
2314, 2.5500000e-02, 2.0323542e-01, 0.0
2315, 2.6000000e-02, 2.0323542e-01, 0.0
2316, 2.6500000e-02, 2.0323542e-01, 0.0
2317, 2.7000000e-02, 2.0323542e-01, 0.0
2318, 2.7500000e-02, 2.0323542e-01, 0.0
2319, 2.7931476e-02, 2.0323542e-01, 0.0
2320, 2.8000000e-02, 2.0323542e-01, 0.0
2321, 2.8500000e-02, 2.0323542e-01, 0.0
2322, 2.9000000e-02, 2.0323542e-01, 0.0
2323, 2.9500000e-02, 2.0323542e-01, 0.0
2324, 3.0000000e-02, 2.0323542e-01, 0.0
2325, 3.0500000e-02, 2.0323542e-01, 0.0
2326, 3.1000000e-02, 2.0323542e-01, 0.0
2327, 3.1500000e-02, 2.0323542e-01, 0.0
2328, 3.2000000e-02, 2.0323542e-01, 0.0
2329, 3.2121198e-02, 2.0323542e-01, 0.0
2330, 3.2500000e-02, 2.0323542e-01, 0.0
2331, 3.3000000e-02, 2.0323542e-01, 0.0
2332, 3.3500000e-02, 2.0323542e-01, 0.0
2333, 3.4000000e-02, 2.0323542e-01, 0.0
2334, 3.4500000e-02, 2.0323542e-01, 0.0
2335, 3.4914345e-02, 2.0323542e-01, 0.0
2336, 1.0000000e-03, 2.0373542e-01, 0.0
2337, 5.0000000e-04, 2.0373542e-01, 0.0
2338, 1.5000000e-03, 2.0373542e-01, 0.0
2339, 2.0000000e-03, 2.0373542e-01, 0.0
2340, 2.5000000e-03, 2.0373542e-01, 0.0
2341, 3.0000000e-03, 2.0373542e-01, 0.0
2342, 3.5000000e-03, 2.0373542e-01, 0.0
2343, 4.0000000e-03, 2.0373542e-01, 0.0
2344, 4.5000000e-03, 2.0373542e-01, 0.0
2345, 5.0000000e-03, 2.0373542e-01, 0.0
2346, 5.5000000e-03, 2.0373542e-01, 0.0
2347, 6.0000000e-03, 2.0373542e-01, 0.0
2348, 6.5000000e-03, 2.0373542e-01, 0.0
2349, 7.0000000e-03, 2.0373542e-01, 0.0
2350, 7.5000000e-03, 2.0373542e-01, 0.0
2351, 8.0000000e-03, 2.0373542e-01, 0.0
2352, 8.5000000e-03, 2.0373542e-01, 0.0
2353, 9.0000000e-03, 2.0373542e-01, 0.0
2354, 9.5000000e-03, 2.0373542e-01, 0.0
2355, 1.0000000e-02, 2.0373542e-01, 0.0
2356, 1.0500000e-02, 2.0373542e-01, 0.0
2357, 1.1000000e-02, 2.0373542e-01, 0.0
2358, 1.1500000e-02, 2.0373542e-01, 0.0
2359, 1.2000000e-02, 2.0373542e-01, 0.0
2360, 1.2500000e-02, 2.0373542e-01, 0.0
2361, 1.3000000e-02, 2.0373542e-01, 0.0
2362, 1.3353586e-02, 2.0373542e-01, 0.0
2363, 1.3500000e-02, 2.0373542e-01, 0.0
2364, 1.4000000e-02, 2.0373542e-01, 0.0
2365, 1.4353586e-02, 2.0373542e-01, 0.0
2366, 1.4500000e-02, 2.0373542e-01, 0.0
2367, 1.5000000e-02, 2.0373542e-01, 0.0
2368, 1.5500000e-02, 2.0373542e-01, 0.0
2369, 1.6000000e-02, 2.0373542e-01, 0.0
2370, 1.6500000e-02, 2.0373542e-01, 0.0
2371, 1.7000000e-02, 2.0373542e-01, 0.0
2372, 1.7500000e-02, 2.0373542e-01, 0.0
2373, 1.8000000e-02, 2.0373542e-01, 0.0
2374, 1.8500000e-02, 2.0373542e-01, 0.0
2375, 1.9000000e-02, 2.0373542e-01, 0.0
2376, 1.9500000e-02, 2.0373542e-01, 0.0
2377, 2.0000000e-02, 2.0373542e-01, 0.0
2378, 2.0500000e-02, 2.0373542e-01, 0.0
2379, 2.1000000e-02, 2.0373542e-01, 0.0
2380, 2.1500000e-02, 2.0373542e-01, 0.0
2381, 2.2000000e-02, 2.0373542e-01, 0.0
2382, 2.2500000e-02, 2.0373542e-01, 0.0
2383, 2.3000000e-02, 2.0373542e-01, 0.0
2384, 2.3500000e-02, 2.0373542e-01, 0.0
2385, 2.4000000e-02, 2.0373542e-01, 0.0
2386, 2.4500000e-02, 2.0373542e-01, 0.0
2387, 2.5000000e-02, 2.0373542e-01, 0.0
2388, 2.5500000e-02, 2.0373542e-01, 0.0
2389, 2.6000000e-02, 2.0373542e-01, 0.0
2390, 2.6500000e-02, 2.0373542e-01, 0.0
2391, 2.7000000e-02, 2.0373542e-01, 0.0
2392, 2.7500000e-02, 2.0373542e-01, 0.0
2393, 2.7931476e-02, 2.0373542e-01, 0.0
2394, 2.8000000e-02, 2.0373542e-01, 0.0
2395, 2.8500000e-02, 2.0373542e-01, 0.0
2396, 2.9000000e-02, 2.0373542e-01, 0.0
2397, 2.9500000e-02, 2.0373542e-01, 0.0
2398, 3.0000000e-02, 2.0373542e-01, 0.0
2399, 3.0500000e-02, 2.0373542e-01, 0.0
2400, 3.1000000e-02, 2.0373542e-01, 0.0
2401, 3.1500000e-02, 2.0373542e-01, 0.0
2402, 3.2000000e-02, 2.0373542e-01, 0.0
2403, 3.2121198e-02, 2.0373542e-01, 0.0
2404, 3.2500000e-02, 2.0373542e-01, 0.0
2405, 3.3000000e-02, 2.0373542e-01, 0.0
2406, 3.3500000e-02, 2.0373542e-01, 0.0
2407, 3.4000000e-02, 2.0373542e-01, 0.0
2408, 3.4500000e-02, 2.0373542e-01, 0.0
2409, 3.4914345e-02, 2.0373542e-01, 0.0
2410, 1.0000000e-03, 2.0423542e-01, 0.0
2411, 5.0000000e-04, 2.0423542e-01, 0.0
2412, 1.5000000e-03, 2.0423542e-01, 0.0
2413, 2.0000000e-03, 2.0423542e-01, 0.0
2414, 2.5000000e-03, 2.0423542e-01, 0.0
2415, 3.0000000e-03, 2.0423542e-01, 0.0
2416, 3.5000000e-03, 2.0423542e-01, 0.0
2417, 4.0000000e-03, 2.0423542e-01, 0.0
2418, 4.5000000e-03, 2.0423542e-01, 0.0
2419, 5.0000000e-03, 2.0423542e-01, 0.0
2420, 5.5000000e-03, 2.0423542e-01, 0.0
2421, 6.0000000e-03, 2.0423542e-01, 0.0
2422, 6.5000000e-03, 2.0423542e-01, 0.0
2423, 7.0000000e-03, 2.0423542e-01, 0.0
2424, 7.5000000e-03, 2.0423542e-01, 0.0
2425, 8.0000000e-03, 2.0423542e-01, 0.0
2426, 8.5000000e-03, 2.0423542e-01, 0.0
2427, 9.0000000e-03, 2.0423542e-01, 0.0
2428, 9.5000000e-03, 2.0423542e-01, 0.0
2429, 1.0000000e-02, 2.0423542e-01, 0.0
2430, 1.0500000e-02, 2.0423542e-01, 0.0
2431, 1.1000000e-02, 2.0423542e-01, 0.0
2432, 1.1500000e-02, 2.0423542e-01, 0.0
2433, 1.2000000e-02, 2.0423542e-01, 0.0
2434, 1.2500000e-02, 2.0423542e-01, 0.0
2435, 1.3000000e-02, 2.0423542e-01, 0.0
2436, 1.3353586e-02, 2.0423542e-01, 0.0
2437, 1.3500000e-02, 2.0423542e-01, 0.0
2438, 1.4000000e-02, 2.0423542e-01, 0.0
2439, 1.4353586e-02, 2.0423542e-01, 0.0
2440, 1.4500000e-02, 2.0423542e-01, 0.0
2441, 1.5000000e-02, 2.0423542e-01, 0.0
2442, 1.5500000e-02, 2.0423542e-01, 0.0
2443, 1.6000000e-02, 2.0423542e-01, 0.0
2444, 1.6500000e-02, 2.0423542e-01, 0.0
2445, 1.7000000e-02, 2.0423542e-01, 0.0
2446, 1.7500000e-02, 2.0423542e-01, 0.0
2447, 1.8000000e-02, 2.0423542e-01, 0.0
2448, 1.8500000e-02, 2.0423542e-01, 0.0
2449, 1.9000000e-02, 2.0423542e-01, 0.0
2450, 1.9500000e-02, 2.0423542e-01, 0.0
2451, 2.0000000e-02, 2.0423542e-01, 0.0
2452, 2.0500000e-02, 2.0423542e-01, 0.0
2453, 2.1000000e-02, 2.0423542e-01, 0.0
2454, 2.1500000e-02, 2.0423542e-01, 0.0
2455, 2.2000000e-02, 2.0423542e-01, 0.0
2456, 2.2500000e-02, 2.0423542e-01, 0.0
2457, 2.3000000e-02, 2.0423542e-01, 0.0
2458, 2.3500000e-02, 2.0423542e-01, 0.0
2459, 2.4000000e-02, 2.0423542e-01, 0.0
2460, 2.4500000e-02, 2.0423542e-01, 0.0
2461, 2.5000000e-02, 2.0423542e-01, 0.0
2462, 2.5500000e-02, 2.0423542e-01, 0.0
2463, 2.6000000e-02, 2.0423542e-01, 0.0
2464, 2.6500000e-02, 2.0423542e-01, 0.0
2465, 2.7000000e-02, 2.0423542e-01, 0.0
2466, 2.7500000e-02, 2.0423542e-01, 0.0
2467, 2.7931476e-02, 2.0423542e-01, 0.0
2468, 2.8000000e-02, 2.0423542e-01, 0.0
2469, 2.8500000e-02, 2.0423542e-01, 0.0
2470, 2.9000000e-02, 2.0423542e-01, 0.0
2471, 2.9500000e-02, 2.0423542e-01, 0.0
2472, 3.0000000e-02, 2.0423542e-01, 0.0
2473, 3.0500000e-02, 2.0423542e-01, 0.0
2474, 3.1000000e-02, 2.0423542e-01, 0.0
2475, 3.1500000e-02, 2.0423542e-01, 0.0
2476, 3.2000000e-02, 2.0423542e-01, 0.0
2477, 3.2121198e-02, 2.0423542e-01, 0.0
2478, 3.2500000e-02, 2.0423542e-01, 0.0
2479, 3.3000000e-02, 2.0423542e-01, 0.0
2480, 3.3500000e-02, 2.0423542e-01, 0.0
2481, 3.4000000e-02, 2.0423542e-01, 0.0
2482, 3.4500000e-02, 2.0423542e-01, 0.0
2483, 3.4914345e-02, 2.0423542e-01, 0.0
2484, 1.0000000e-03, 2.0473542e-01, 0.0
2485, 5.0000000e-04, 2.0473542e-01, 0.0
2486, 1.5000000e-03, 2.0473542e-01, 0.0
2487, 2.0000000e-03, 2.0473542e-01, 0.0
2488, 2.5000000e-03, 2.0473542e-01, 0.0
2489, 3.0000000e-03, 2.0473542e-01, 0.0
2490, 3.5000000e-03, 2.0473542e-01, 0.0
2491, 4.0000000e-03, 2.0473542e-01, 0.0
2492, 4.5000000e-03, 2.0473542e-01, 0.0
2493, 5.0000000e-03, 2.0473542e-01, 0.0
2494, 5.5000000e-03, 2.0473542e-01, 0.0
2495, 6.0000000e-03, 2.0473542e-01, 0.0
2496, 6.5000000e-03, 2.0473542e-01, 0.0
2497, 7.0000000e-03, 2.0473542e-01, 0.0
2498, 7.5000000e-03, 2.0473542e-01, 0.0
2499, 8.0000000e-03, 2.0473542e-01, 0.0
2500, 8.5000000e-03, 2.0473542e-01, 0.0
2501, 9.0000000e-03, 2.0473542e-01, 0.0
2502, 9.5000000e-03, 2.0473542e-01, 0.0
2503, 1.0000000e-02, 2.0473542e-01, 0.0
2504, 1.0500000e-02, 2.0473542e-01, 0.0
2505, 1.1000000e-02, 2.0473542e-01, 0.0
2506, 1.1500000e-02, 2.0473542e-01, 0.0
2507, 1.2000000e-02, 2.0473542e-01, 0.0
2508, 1.2500000e-02, 2.0473542e-01, 0.0
2509, 1.3000000e-02, 2.0473542e-01, 0.0
2510, 1.3353586e-02, 2.0473542e-01, 0.0
2511, 1.3500000e-02, 2.0473542e-01, 0.0
2512, 1.4000000e-02, 2.0473542e-01, 0.0
2513, 1.4353586e-02, 2.0473542e-01, 0.0
2514, 1.4500000e-02, 2.0473542e-01, 0.0
2515, 1.5000000e-02, 2.0473542e-01, 0.0
2516, 1.5500000e-02, 2.0473542e-01, 0.0
2517, 1.6000000e-02, 2.0473542e-01, 0.0
2518, 1.6500000e-02, 2.0473542e-01, 0.0
2519, 1.7000000e-02, 2.0473542e-01, 0.0
2520, 1.7500000e-02, 2.0473542e-01, 0.0
2521, 1.8000000e-02, 2.0473542e-01, 0.0
2522, 1.8500000e-02, 2.0473542e-01, 0.0
2523, 1.9000000e-02, 2.0473542e-01, 0.0
2524, 1.9500000e-02, 2.0473542e-01, 0.0
2525, 2.0000000e-02, 2.0473542e-01, 0.0
2526, 2.0500000e-02, 2.0473542e-01, 0.0
2527, 2.1000000e-02, 2.0473542e-01, 0.0
2528, 2.1500000e-02, 2.0473542e-01, 0.0
2529, 2.2000000e-02, 2.0473542e-01, 0.0
2530, 2.2500000e-02, 2.0473542e-01, 0.0
2531, 2.3000000e-02, 2.0473542e-01, 0.0
2532, 2.3500000e-02, 2.0473542e-01, 0.0
2533, 2.4000000e-02, 2.0473542e-01, 0.0
2534, 2.4500000e-02, 2.0473542e-01, 0.0
2535, 2.5000000e-02, 2.0473542e-01, 0.0
2536, 2.5500000e-02, 2.0473542e-01, 0.0
2537, 2.6000000e-02, 2.0473542e-01, 0.0
2538, 2.6500000e-02, 2.0473542e-01, 0.0
2539, 2.7000000e-02, 2.0473542e-01, 0.0
2540, 2.7500000e-02, 2.0473542e-01, 0.0
2541, 2.7931476e-02, 2.0473542e-01, 0.0
2542, 2.8000000e-02, 2.0473542e-01, 0.0
2543, 2.8500000e-02, 2.0473542e-01, 0.0
2544, 2.9000000e-02, 2.0473542e-01, 0.0
2545, 2.9500000e-02, 2.0473542e-01, 0.0
2546, 3.0000000e-02, 2.0473542e-01, 0.0
2547, 3.0500000e-02, 2.0473542e-01, 0.0
2548, 3.1000000e-02, 2.0473542e-01, 0.0
2549, 3.1500000e-02, 2.0473542e-01, 0.0
2550, 3.2000000e-02, 2.0473542e-01, 0.0
2551, 3.2121198e-02, 2.0473542e-01, 0.0
2552, 3.2500000e-02, 2.0473542e-01, 0.0
2553, 3.3000000e-02, 2.0473542e-01, 0.0
2554, 3.3500000e-02, 2.0473542e-01, 0.0
2555, 3.4000000e-02, 2.0473542e-01, 0.0
2556, 3.4500000e-02, 2.0473542e-01, 0.0
2557, 3.4914345e-02, 2.0473542e-01, 0.0
2558, 1.0000000e-03, 2.0523542e-01, 0.0
2559, 5.0000000e-04, 2.0523542e-01, 0.0
2560, 1.5000000e-03, 2.0523542e-01, 0.0
2561, 2.0000000e-03, 2.0523542e-01, 0.0
2562, 2.5000000e-03, 2.0523542e-01, 0.0
2563, 3.0000000e-03, 2.0523542e-01, 0.0
2564, 3.5000000e-03, 2.0523542e-01, 0.0
2565, 4.0000000e-03, 2.0523542e-01, 0.0
2566, 4.5000000e-03, 2.0523542e-01, 0.0
2567, 5.0000000e-03, 2.0523542e-01, 0.0
2568, 5.5000000e-03, 2.0523542e-01, 0.0
2569, 6.0000000e-03, 2.0523542e-01, 0.0
2570, 6.5000000e-03, 2.0523542e-01, 0.0
2571, 7.0000000e-03, 2.0523542e-01, 0.0
2572, 7.5000000e-03, 2.0523542e-01, 0.0
2573, 8.0000000e-03, 2.0523542e-01, 0.0
2574, 8.5000000e-03, 2.0523542e-01, 0.0
2575, 9.0000000e-03, 2.0523542e-01, 0.0
2576, 9.5000000e-03, 2.0523542e-01, 0.0
2577, 1.0000000e-02, 2.0523542e-01, 0.0
2578, 1.0500000e-02, 2.0523542e-01, 0.0
2579, 1.1000000e-02, 2.0523542e-01, 0.0
2580, 1.1500000e-02, 2.0523542e-01, 0.0
2581, 1.2000000e-02, 2.0523542e-01, 0.0
2582, 1.2500000e-02, 2.0523542e-01, 0.0
2583, 1.3000000e-02, 2.0523542e-01, 0.0
2584, 1.3353586e-02, 2.0523542e-01, 0.0
2585, 1.3500000e-02, 2.0523542e-01, 0.0
2586, 1.4000000e-02, 2.0523542e-01, 0.0
2587, 1.4353586e-02, 2.0523542e-01, 0.0
2588, 1.4500000e-02, 2.0523542e-01, 0.0
2589, 1.5000000e-02, 2.0523542e-01, 0.0
2590, 1.5500000e-02, 2.0523542e-01, 0.0
2591, 1.6000000e-02, 2.0523542e-01, 0.0
2592, 1.6500000e-02, 2.0523542e-01, 0.0
2593, 1.7000000e-02, 2.0523542e-01, 0.0
2594, 1.7500000e-02, 2.0523542e-01, 0.0
2595, 1.8000000e-02, 2.0523542e-01, 0.0
2596, 1.8500000e-02, 2.0523542e-01, 0.0
2597, 1.9000000e-02, 2.0523542e-01, 0.0
2598, 1.9500000e-02, 2.0523542e-01, 0.0
2599, 2.0000000e-02, 2.0523542e-01, 0.0
2600, 2.0500000e-02, 2.0523542e-01, 0.0
2601, 2.1000000e-02, 2.0523542e-01, 0.0
2602, 2.1500000e-02, 2.0523542e-01, 0.0
2603, 2.2000000e-02, 2.0523542e-01, 0.0
2604, 2.2500000e-02, 2.0523542e-01, 0.0
2605, 2.3000000e-02, 2.0523542e-01, 0.0
2606, 2.3500000e-02, 2.0523542e-01, 0.0
2607, 2.4000000e-02, 2.0523542e-01, 0.0
2608, 2.4500000e-02, 2.0523542e-01, 0.0
2609, 2.5000000e-02, 2.0523542e-01, 0.0
2610, 2.5500000e-02, 2.0523542e-01, 0.0
2611, 2.6000000e-02, 2.0523542e-01, 0.0
2612, 2.6500000e-02, 2.0523542e-01, 0.0
2613, 2.7000000e-02, 2.0523542e-01, 0.0
2614, 2.7500000e-02, 2.0523542e-01, 0.0
2615, 2.7931476e-02, 2.0523542e-01, 0.0
2616, 2.8000000e-02, 2.0523542e-01, 0.0
2617, 2.8500000e-02, 2.0523542e-01, 0.0
2618, 2.9000000e-02, 2.0523542e-01, 0.0
2619, 2.9500000e-02, 2.0523542e-01, 0.0
2620, 3.0000000e-02, 2.0523542e-01, 0.0
2621, 3.0500000e-02, 2.0523542e-01, 0.0
2622, 3.1000000e-02, 2.0523542e-01, 0.0
2623, 3.1500000e-02, 2.0523542e-01, 0.0
2624, 3.2000000e-02, 2.0523542e-01, 0.0
2625, 3.2121198e-02, 2.0523542e-01, 0.0
2626, 3.2500000e-02, 2.0523542e-01, 0.0
2627, 3.3000000e-02, 2.0523542e-01, 0.0
2628, 3.3500000e-02, 2.0523542e-01, 0.0
2629, 3.4000000e-02, 2.0523542e-01, 0.0
2630, 3.4500000e-02, 2.0523542e-01, 0.0
2631, 3.4914345e-02, 2.0523542e-01, 0.0
2632, 1.0000000e-03, 2.0573542e-01, 0.0
2633, 5.0000000e-04, 2.0573542e-01, 0.0
2634, 1.5000000e-03, 2.0573542e-01, 0.0
2635, 2.0000000e-03, 2.0573542e-01, 0.0
2636, 2.5000000e-03, 2.0573542e-01, 0.0
2637, 3.0000000e-03, 2.0573542e-01, 0.0
2638, 3.5000000e-03, 2.0573542e-01, 0.0
2639, 4.0000000e-03, 2.0573542e-01, 0.0
2640, 4.5000000e-03, 2.0573542e-01, 0.0
2641, 5.0000000e-03, 2.0573542e-01, 0.0
2642, 5.5000000e-03, 2.0573542e-01, 0.0
2643, 6.0000000e-03, 2.0573542e-01, 0.0
2644, 6.5000000e-03, 2.0573542e-01, 0.0
2645, 7.0000000e-03, 2.0573542e-01, 0.0
2646, 7.5000000e-03, 2.0573542e-01, 0.0
2647, 8.0000000e-03, 2.0573542e-01, 0.0
2648, 8.5000000e-03, 2.0573542e-01, 0.0
2649, 9.0000000e-03, 2.0573542e-01, 0.0
2650, 9.5000000e-03, 2.0573542e-01, 0.0
2651, 1.0000000e-02, 2.0573542e-01, 0.0
2652, 1.0500000e-02, 2.0573542e-01, 0.0
2653, 1.1000000e-02, 2.0573542e-01, 0.0
2654, 1.1500000e-02, 2.0573542e-01, 0.0
2655, 1.2000000e-02, 2.0573542e-01, 0.0
2656, 1.2500000e-02, 2.0573542e-01, 0.0
2657, 1.3000000e-02, 2.0573542e-01, 0.0
2658, 1.3353586e-02, 2.0573542e-01, 0.0
2659, 1.3500000e-02, 2.0573542e-01, 0.0
2660, 1.4000000e-02, 2.0573542e-01, 0.0
2661, 1.4353586e-02, 2.0573542e-01, 0.0
2662, 1.4500000e-02, 2.0573542e-01, 0.0
2663, 1.5000000e-02, 2.0573542e-01, 0.0
2664, 1.5500000e-02, 2.0573542e-01, 0.0
2665, 1.6000000e-02, 2.0573542e-01, 0.0
2666, 1.6500000e-02, 2.0573542e-01, 0.0
2667, 1.7000000e-02, 2.0573542e-01, 0.0
2668, 1.7500000e-02, 2.0573542e-01, 0.0
2669, 1.8000000e-02, 2.0573542e-01, 0.0
2670, 1.8500000e-02, 2.0573542e-01, 0.0
2671, 1.9000000e-02, 2.0573542e-01, 0.0
2672, 1.9500000e-02, 2.0573542e-01, 0.0
2673, 2.0000000e-02, 2.0573542e-01, 0.0
2674, 2.0500000e-02, 2.0573542e-01, 0.0
2675, 2.1000000e-02, 2.0573542e-01, 0.0
2676, 2.1500000e-02, 2.0573542e-01, 0.0
2677, 2.2000000e-02, 2.0573542e-01, 0.0
2678, 2.2500000e-02, 2.0573542e-01, 0.0
2679, 2.3000000e-02, 2.0573542e-01, 0.0
2680, 2.3500000e-02, 2.0573542e-01, 0.0
2681, 2.4000000e-02, 2.0573542e-01, 0.0
2682, 2.4500000e-02, 2.0573542e-01, 0.0
2683, 2.5000000e-02, 2.0573542e-01, 0.0
2684, 2.5500000e-02, 2.0573542e-01, 0.0
2685, 2.6000000e-02, 2.0573542e-01, 0.0
2686, 2.6500000e-02, 2.0573542e-01, 0.0
2687, 2.7000000e-02, 2.0573542e-01, 0.0
2688, 2.7500000e-02, 2.0573542e-01, 0.0
2689, 2.7931476e-02, 2.0573542e-01, 0.0
2690, 2.8000000e-02, 2.0573542e-01, 0.0
2691, 2.8500000e-02, 2.0573542e-01, 0.0
2692, 2.9000000e-02, 2.0573542e-01, 0.0
2693, 2.9500000e-02, 2.0573542e-01, 0.0
2694, 3.0000000e-02, 2.0573542e-01, 0.0
2695, 3.0500000e-02, 2.0573542e-01, 0.0
2696, 3.1000000e-02, 2.0573542e-01, 0.0
2697, 3.1500000e-02, 2.0573542e-01, 0.0
2698, 3.2000000e-02, 2.0573542e-01, 0.0
2699, 3.2121198e-02, 2.0573542e-01, 0.0
2700, 3.2500000e-02, 2.0573542e-01, 0.0
2701, 3.3000000e-02, 2.0573542e-01, 0.0
2702, 3.3500000e-02, 2.0573542e-01, 0.0
2703, 3.4000000e-02, 2.0573542e-01, 0.0
2704, 3.4500000e-02, 2.0573542e-01, 0.0
2705, 3.4914345e-02, 2.0573542e-01, 0.0
2706, 1.0000000e-03, 2.0595633e-01, 0.0
2707, 5.0000000e-04, 2.0595633e-01, 0.0
2708, 1.5000000e-03, 2.0595633e-01, 0.0
2709, 2.0000000e-03, 2.0595633e-01, 0.0
2710, 2.5000000e-03, 2.0595633e-01, 0.0
2711, 3.0000000e-03, 2.0595633e-01, 0.0
2712, 3.5000000e-03, 2.0595633e-01, 0.0
2713, 4.0000000e-03, 2.0595633e-01, 0.0
2714, 4.5000000e-03, 2.0595633e-01, 0.0
2715, 5.0000000e-03, 2.0595633e-01, 0.0
2716, 5.5000000e-03, 2.0595633e-01, 0.0
2717, 6.0000000e-03, 2.0595633e-01, 0.0
2718, 6.5000000e-03, 2.0595633e-01, 0.0
2719, 7.0000000e-03, 2.0595633e-01, 0.0
2720, 7.5000000e-03, 2.0595633e-01, 0.0
2721, 8.0000000e-03, 2.0595633e-01, 0.0
2722, 8.5000000e-03, 2.0595633e-01, 0.0
2723, 9.0000000e-03, 2.0595633e-01, 0.0
2724, 9.5000000e-03, 2.0595633e-01, 0.0
2725, 1.0000000e-02, 2.0595633e-01, 0.0
2726, 1.0500000e-02, 2.0595633e-01, 0.0
2727, 1.1000000e-02, 2.0595633e-01, 0.0
2728, 1.1500000e-02, 2.0595633e-01, 0.0
2729, 1.2000000e-02, 2.0595633e-01, 0.0
2730, 1.2500000e-02, 2.0595633e-01, 0.0
2731, 1.3000000e-02, 2.0595633e-01, 0.0
2732, 1.3353586e-02, 2.0595633e-01, 0.0
2733, 1.3500000e-02, 2.0595633e-01, 0.0
2734, 1.4000000e-02, 2.0595633e-01, 0.0
2735, 1.4353586e-02, 2.0595633e-01, 0.0
2736, 1.4500000e-02, 2.0595633e-01, 0.0
2737, 1.5000000e-02, 2.0595633e-01, 0.0
2738, 1.5500000e-02, 2.0595633e-01, 0.0
2739, 1.6000000e-02, 2.0595633e-01, 0.0
2740, 1.6500000e-02, 2.0595633e-01, 0.0
2741, 1.7000000e-02, 2.0595633e-01, 0.0
2742, 1.7500000e-02, 2.0595633e-01, 0.0
2743, 1.8000000e-02, 2.0595633e-01, 0.0
2744, 1.8500000e-02, 2.0595633e-01, 0.0
2745, 1.9000000e-02, 2.0595633e-01, 0.0
2746, 1.9500000e-02, 2.0595633e-01, 0.0
2747, 2.0000000e-02, 2.0595633e-01, 0.0
2748, 2.0500000e-02, 2.0595633e-01, 0.0
2749, 2.1000000e-02, 2.0595633e-01, 0.0
2750, 2.1500000e-02, 2.0595633e-01, 0.0
2751, 2.2000000e-02, 2.0595633e-01, 0.0
2752, 2.2500000e-02, 2.0595633e-01, 0.0
2753, 2.3000000e-02, 2.0595633e-01, 0.0
2754, 2.3500000e-02, 2.0595633e-01, 0.0
2755, 2.4000000e-02, 2.0595633e-01, 0.0
2756, 2.4500000e-02, 2.0595633e-01, 0.0
2757, 2.5000000e-02, 2.0595633e-01, 0.0
2758, 2.5500000e-02, 2.0595633e-01, 0.0
2759, 2.6000000e-02, 2.0595633e-01, 0.0
2760, 2.6500000e-02, 2.0595633e-01, 0.0
2761, 2.7000000e-02, 2.0595633e-01, 0.0
2762, 2.7500000e-02, 2.0595633e-01, 0.0
2763, 2.7931476e-02, 2.0595633e-01, 0.0
2764, 2.8000000e-02, 2.0595633e-01, 0.0
2765, 2.8500000e-02, 2.0595633e-01, 0.0
2766, 2.9000000e-02, 2.0595633e-01, 0.0
2767, 2.9500000e-02, 2.0595633e-01, 0.0
2768, 3.0000000e-02, 2.0595633e-01, 0.0
2769, 3.0500000e-02, 2.0595633e-01, 0.0
2770, 3.1000000e-02, 2.0595633e-01, 0.0
2771, 3.1500000e-02, 2.0595633e-01, 0.0
2772, 3.2000000e-02, 2.0595633e-01, 0.0
2773, 3.2121198e-02, 2.0595633e-01, 0.0
2774, 3.2500000e-02, 2.0595633e-01, 0.0
2775, 3.3000000e-02, 2.0595633e-01, 0.0
2776, 3.3500000e-02, 2.0595633e-01, 0.0
2777, 3.4000000e-02, 2.0595633e-01, 0.0
2778, 3.4500000e-02, 2.0595633e-01, 0.0
2779, 3.4914345e-02, 2.0595633e-01, 0.0
2780, 1.0000000e-03, 2.0623542e-01, 0.0
2781, 5.0000000e-04, 2.0623542e-01, 0.0
2782, 1.5000000e-03, 2.0623542e-01, 0.0
2783, 2.0000000e-03, 2.0623542e-01, 0.0
2784, 2.5000000e-03, 2.0623542e-01, 0.0
2785, 3.0000000e-03, 2.0623542e-01, 0.0
2786, 3.5000000e-03, 2.0623542e-01, 0.0
2787, 4.0000000e-03, 2.0623542e-01, 0.0
2788, 4.5000000e-03, 2.0623542e-01, 0.0
2789, 5.0000000e-03, 2.0623542e-01, 0.0
2790, 5.5000000e-03, 2.0623542e-01, 0.0
2791, 6.0000000e-03, 2.0623542e-01, 0.0
2792, 6.5000000e-03, 2.0623542e-01, 0.0
2793, 7.0000000e-03, 2.0623542e-01, 0.0
2794, 7.5000000e-03, 2.0623542e-01, 0.0
2795, 8.0000000e-03, 2.0623542e-01, 0.0
2796, 8.5000000e-03, 2.0623542e-01, 0.0
2797, 9.0000000e-03, 2.0623542e-01, 0.0
2798, 9.5000000e-03, 2.0623542e-01, 0.0
2799, 1.0000000e-02, 2.0623542e-01, 0.0
2800, 1.0500000e-02, 2.0623542e-01, 0.0
2801, 1.1000000e-02, 2.0623542e-01, 0.0
2802, 1.1500000e-02, 2.0623542e-01, 0.0
2803, 1.2000000e-02, 2.0623542e-01, 0.0
2804, 1.2500000e-02, 2.0623542e-01, 0.0
2805, 1.3000000e-02, 2.0623542e-01, 0.0
2806, 1.3353586e-02, 2.0623542e-01, 0.0
2807, 1.3500000e-02, 2.0623542e-01, 0.0
2808, 1.4000000e-02, 2.0623542e-01, 0.0
2809, 1.4353586e-02, 2.0623542e-01, 0.0
2810, 2.8500000e-02, 2.0623542e-01, 0.0
2811, 2.8000000e-02, 2.0623542e-01, 0.0
2812, 2.9000000e-02, 2.0623542e-01, 0.0
2813, 2.9500000e-02, 2.0623542e-01, 0.0
2814, 3.0000000e-02, 2.0623542e-01, 0.0
2815, 3.0500000e-02, 2.0623542e-01, 0.0
2816, 3.1000000e-02, 2.0623542e-01, 0.0
2817, 3.1500000e-02, 2.0623542e-01, 0.0
2818, 3.2000000e-02, 2.0623542e-01, 0.0
2819, 3.2121198e-02, 2.0623542e-01, 0.0
2820, 3.2500000e-02, 2.0623542e-01, 0.0
2821, 3.3000000e-02, 2.0623542e-01, 0.0
2822, 3.3500000e-02, 2.0623542e-01, 0.0
2823, 3.4000000e-02, 2.0623542e-01, 0.0
2824, 3.4500000e-02, 2.0623542e-01, 0.0
2825, 3.4914345e-02, 2.0623542e-01, 0.0
2826, 1.0000000e-03, 2.0673542e-01, 0.0
2827, 5.0000000e-04, 2.0673542e-01, 0.0
2828, 1.5000000e-03, 2.0673542e-01, 0.0
2829, 2.0000000e-03, 2.0673542e-01, 0.0
2830, 2.5000000e-03, 2.0673542e-01, 0.0
2831, 3.0000000e-03, 2.0673542e-01, 0.0
2832, 3.5000000e-03, 2.0673542e-01, 0.0
2833, 4.0000000e-03, 2.0673542e-01, 0.0
2834, 4.5000000e-03, 2.0673542e-01, 0.0
2835, 5.0000000e-03, 2.0673542e-01, 0.0
2836, 5.5000000e-03, 2.0673542e-01, 0.0
2837, 6.0000000e-03, 2.0673542e-01, 0.0
2838, 6.5000000e-03, 2.0673542e-01, 0.0
2839, 7.0000000e-03, 2.0673542e-01, 0.0
2840, 7.5000000e-03, 2.0673542e-01, 0.0
2841, 8.0000000e-03, 2.0673542e-01, 0.0
2842, 8.5000000e-03, 2.0673542e-01, 0.0
2843, 9.0000000e-03, 2.0673542e-01, 0.0
2844, 9.5000000e-03, 2.0673542e-01, 0.0
2845, 1.0000000e-02, 2.0673542e-01, 0.0
2846, 1.0500000e-02, 2.0673542e-01, 0.0
2847, 1.1000000e-02, 2.0673542e-01, 0.0
2848, 1.1500000e-02, 2.0673542e-01, 0.0
2849, 1.2000000e-02, 2.0673542e-01, 0.0
2850, 1.2500000e-02, 2.0673542e-01, 0.0
2851, 1.3000000e-02, 2.0673542e-01, 0.0
2852, 1.3353586e-02, 2.0673542e-01, 0.0
2853, 1.3500000e-02, 2.0673542e-01, 0.0
2854, 1.4000000e-02, 2.0673542e-01, 0.0
2855, 1.4353586e-02, 2.0673542e-01, 0.0
2856, 2.9000000e-02, 2.0673542e-01, 0.0
2857, 2.8500000e-02, 2.0673542e-01, 0.0
2858, 2.9500000e-02, 2.0673542e-01, 0.0
2859, 3.0000000e-02, 2.0673542e-01, 0.0
2860, 3.0500000e-02, 2.0673542e-01, 0.0
2861, 3.1000000e-02, 2.0673542e-01, 0.0
2862, 3.1500000e-02, 2.0673542e-01, 0.0
2863, 3.2000000e-02, 2.0673542e-01, 0.0
2864, 3.2121198e-02, 2.0673542e-01, 0.0
2865, 3.2500000e-02, 2.0673542e-01, 0.0
2866, 3.3000000e-02, 2.0673542e-01, 0.0
2867, 3.3500000e-02, 2.0673542e-01, 0.0
2868, 3.4000000e-02, 2.0673542e-01, 0.0
2869, 3.4500000e-02, 2.0673542e-01, 0.0
2870, 3.4914345e-02, 2.0673542e-01, 0.0
2871, 1.0000000e-03, 2.0723542e-01, 0.0
2872, 5.0000000e-04, 2.0723542e-01, 0.0
2873, 1.5000000e-03, 2.0723542e-01, 0.0
2874, 2.0000000e-03, 2.0723542e-01, 0.0
2875, 2.5000000e-03, 2.0723542e-01, 0.0
2876, 3.0000000e-03, 2.0723542e-01, 0.0
2877, 3.5000000e-03, 2.0723542e-01, 0.0
2878, 4.0000000e-03, 2.0723542e-01, 0.0
2879, 4.5000000e-03, 2.0723542e-01, 0.0
2880, 5.0000000e-03, 2.0723542e-01, 0.0
2881, 5.5000000e-03, 2.0723542e-01, 0.0
2882, 6.0000000e-03, 2.0723542e-01, 0.0
2883, 6.5000000e-03, 2.0723542e-01, 0.0
2884, 7.0000000e-03, 2.0723542e-01, 0.0
2885, 7.5000000e-03, 2.0723542e-01, 0.0
2886, 8.0000000e-03, 2.0723542e-01, 0.0
2887, 8.5000000e-03, 2.0723542e-01, 0.0
2888, 9.0000000e-03, 2.0723542e-01, 0.0
2889, 9.5000000e-03, 2.0723542e-01, 0.0
2890, 1.0000000e-02, 2.0723542e-01, 0.0
2891, 1.0500000e-02, 2.0723542e-01, 0.0
2892, 1.1000000e-02, 2.0723542e-01, 0.0
2893, 1.1500000e-02, 2.0723542e-01, 0.0
2894, 1.2000000e-02, 2.0723542e-01, 0.0
2895, 1.2500000e-02, 2.0723542e-01, 0.0
2896, 1.3000000e-02, 2.0723542e-01, 0.0
2897, 1.3353586e-02, 2.0723542e-01, 0.0
2898, 1.3500000e-02, 2.0723542e-01, 0.0
2899, 1.4000000e-02, 2.0723542e-01, 0.0
2900, 1.4353586e-02, 2.0723542e-01, 0.0
2901, 3.0000000e-02, 2.0723542e-01, 0.0
2902, 2.9500000e-02, 2.0723542e-01, 0.0
2903, 3.0500000e-02, 2.0723542e-01, 0.0
2904, 3.1000000e-02, 2.0723542e-01, 0.0
2905, 3.1500000e-02, 2.0723542e-01, 0.0
2906, 3.2000000e-02, 2.0723542e-01, 0.0
2907, 3.2121198e-02, 2.0723542e-01, 0.0
2908, 3.2500000e-02, 2.0723542e-01, 0.0
2909, 3.3000000e-02, 2.0723542e-01, 0.0
2910, 3.3500000e-02, 2.0723542e-01, 0.0
2911, 3.4000000e-02, 2.0723542e-01, 0.0
2912, 3.4500000e-02, 2.0723542e-01, 0.0
2913, 3.4914345e-02, 2.0723542e-01, 0.0
2914, 1.0000000e-03, 2.0773542e-01, 0.0
2915, 5.0000000e-04, 2.0773542e-01, 0.0
2916, 1.5000000e-03, 2.0773542e-01, 0.0
2917, 2.0000000e-03, 2.0773542e-01, 0.0
2918, 2.5000000e-03, 2.0773542e-01, 0.0
2919, 3.0000000e-03, 2.0773542e-01, 0.0
2920, 3.5000000e-03, 2.0773542e-01, 0.0
2921, 4.0000000e-03, 2.0773542e-01, 0.0
2922, 4.5000000e-03, 2.0773542e-01, 0.0
2923, 5.0000000e-03, 2.0773542e-01, 0.0
2924, 5.5000000e-03, 2.0773542e-01, 0.0
2925, 6.0000000e-03, 2.0773542e-01, 0.0
2926, 6.5000000e-03, 2.0773542e-01, 0.0
2927, 7.0000000e-03, 2.0773542e-01, 0.0
2928, 7.5000000e-03, 2.0773542e-01, 0.0
2929, 8.0000000e-03, 2.0773542e-01, 0.0
2930, 8.5000000e-03, 2.0773542e-01, 0.0
2931, 9.0000000e-03, 2.0773542e-01, 0.0
2932, 9.5000000e-03, 2.0773542e-01, 0.0
2933, 1.0000000e-02, 2.0773542e-01, 0.0
2934, 1.0500000e-02, 2.0773542e-01, 0.0
2935, 1.1000000e-02, 2.0773542e-01, 0.0
2936, 1.1500000e-02, 2.0773542e-01, 0.0
2937, 1.2000000e-02, 2.0773542e-01, 0.0
2938, 1.2500000e-02, 2.0773542e-01, 0.0
2939, 1.3000000e-02, 2.0773542e-01, 0.0
2940, 1.3353586e-02, 2.0773542e-01, 0.0
2941, 1.3500000e-02, 2.0773542e-01, 0.0
2942, 1.4000000e-02, 2.0773542e-01, 0.0
2943, 1.4353586e-02, 2.0773542e-01, 0.0
2944, 3.0500000e-02, 2.0773542e-01, 0.0
2945, 3.0000000e-02, 2.0773542e-01, 0.0
2946, 3.1000000e-02, 2.0773542e-01, 0.0
2947, 3.1500000e-02, 2.0773542e-01, 0.0
2948, 3.2000000e-02, 2.0773542e-01, 0.0
2949, 3.2121198e-02, 2.0773542e-01, 0.0
2950, 3.2500000e-02, 2.0773542e-01, 0.0
2951, 3.3000000e-02, 2.0773542e-01, 0.0
2952, 3.3500000e-02, 2.0773542e-01, 0.0
2953, 3.4000000e-02, 2.0773542e-01, 0.0
2954, 3.4500000e-02, 2.0773542e-01, 0.0
2955, 3.4914345e-02, 2.0773542e-01, 0.0
2956, 1.0000000e-03, 2.0823542e-01, 0.0
2957, 5.0000000e-04, 2.0823542e-01, 0.0
2958, 1.5000000e-03, 2.0823542e-01, 0.0
2959, 2.0000000e-03, 2.0823542e-01, 0.0
2960, 2.5000000e-03, 2.0823542e-01, 0.0
2961, 3.0000000e-03, 2.0823542e-01, 0.0
2962, 3.5000000e-03, 2.0823542e-01, 0.0
2963, 4.0000000e-03, 2.0823542e-01, 0.0
2964, 4.5000000e-03, 2.0823542e-01, 0.0
2965, 5.0000000e-03, 2.0823542e-01, 0.0
2966, 5.5000000e-03, 2.0823542e-01, 0.0
2967, 6.0000000e-03, 2.0823542e-01, 0.0
2968, 6.5000000e-03, 2.0823542e-01, 0.0
2969, 7.0000000e-03, 2.0823542e-01, 0.0
2970, 7.5000000e-03, 2.0823542e-01, 0.0
2971, 8.0000000e-03, 2.0823542e-01, 0.0
2972, 8.5000000e-03, 2.0823542e-01, 0.0
2973, 9.0000000e-03, 2.0823542e-01, 0.0
2974, 9.5000000e-03, 2.0823542e-01, 0.0
2975, 1.0000000e-02, 2.0823542e-01, 0.0
2976, 1.0500000e-02, 2.0823542e-01, 0.0
2977, 1.1000000e-02, 2.0823542e-01, 0.0
2978, 1.1500000e-02, 2.0823542e-01, 0.0
2979, 1.2000000e-02, 2.0823542e-01, 0.0
2980, 1.2500000e-02, 2.0823542e-01, 0.0
2981, 1.3000000e-02, 2.0823542e-01, 0.0
2982, 1.3353586e-02, 2.0823542e-01, 0.0
2983, 1.3500000e-02, 2.0823542e-01, 0.0
2984, 1.4000000e-02, 2.0823542e-01, 0.0
2985, 1.4353586e-02, 2.0823542e-01, 0.0
2986, 3.1000000e-02, 2.0823542e-01, 0.0
2987, 3.0500000e-02, 2.0823542e-01, 0.0
2988, 3.1500000e-02, 2.0823542e-01, 0.0
2989, 3.2000000e-02, 2.0823542e-01, 0.0
2990, 3.2121198e-02, 2.0823542e-01, 0.0
2991, 3.2500000e-02, 2.0823542e-01, 0.0
2992, 3.3000000e-02, 2.0823542e-01, 0.0
2993, 3.3500000e-02, 2.0823542e-01, 0.0
2994, 3.4000000e-02, 2.0823542e-01, 0.0
2995, 3.4500000e-02, 2.0823542e-01, 0.0
2996, 3.4914345e-02, 2.0823542e-01, 0.0
2997, 1.0000000e-03, 2.0873542e-01, 0.0
2998, 5.0000000e-04, 2.0873542e-01, 0.0
2999, 1.5000000e-03, 2.0873542e-01, 0.0
3000, 2.0000000e-03, 2.0873542e-01, 0.0
3001, 2.5000000e-03, 2.0873542e-01, 0.0
3002, 3.0000000e-03, 2.0873542e-01, 0.0
3003, 3.5000000e-03, 2.0873542e-01, 0.0
3004, 4.0000000e-03, 2.0873542e-01, 0.0
3005, 4.5000000e-03, 2.0873542e-01, 0.0
3006, 5.0000000e-03, 2.0873542e-01, 0.0
3007, 5.5000000e-03, 2.0873542e-01, 0.0
3008, 6.0000000e-03, 2.0873542e-01, 0.0
3009, 6.5000000e-03, 2.0873542e-01, 0.0
3010, 7.0000000e-03, 2.0873542e-01, 0.0
3011, 7.5000000e-03, 2.0873542e-01, 0.0
3012, 8.0000000e-03, 2.0873542e-01, 0.0
3013, 8.5000000e-03, 2.0873542e-01, 0.0
3014, 9.0000000e-03, 2.0873542e-01, 0.0
3015, 9.5000000e-03, 2.0873542e-01, 0.0
3016, 1.0000000e-02, 2.0873542e-01, 0.0
3017, 1.0500000e-02, 2.0873542e-01, 0.0
3018, 1.1000000e-02, 2.0873542e-01, 0.0
3019, 1.1500000e-02, 2.0873542e-01, 0.0
3020, 1.2000000e-02, 2.0873542e-01, 0.0
3021, 1.2500000e-02, 2.0873542e-01, 0.0
3022, 1.3000000e-02, 2.0873542e-01, 0.0
3023, 1.3353586e-02, 2.0873542e-01, 0.0
3024, 1.3500000e-02, 2.0873542e-01, 0.0
3025, 1.4000000e-02, 2.0873542e-01, 0.0
3026, 3.2000000e-02, 2.0873542e-01, 0.0
3027, 3.1500000e-02, 2.0873542e-01, 0.0
3028, 3.2121198e-02, 2.0873542e-01, 0.0
3029, 3.2500000e-02, 2.0873542e-01, 0.0
3030, 3.3000000e-02, 2.0873542e-01, 0.0
3031, 3.3500000e-02, 2.0873542e-01, 0.0
3032, 3.4000000e-02, 2.0873542e-01, 0.0
3033, 3.4500000e-02, 2.0873542e-01, 0.0
3034, 3.4914345e-02, 2.0873542e-01, 0.0
3035, 1.0000000e-03, 2.0901341e-01, 0.0
3036, 5.0000000e-04, 2.0901341e-01, 0.0
3037, 1.5000000e-03, 2.0901341e-01, 0.0
3038, 2.0000000e-03, 2.0901341e-01, 0.0
3039, 2.5000000e-03, 2.0901341e-01, 0.0
3040, 3.0000000e-03, 2.0901341e-01, 0.0
3041, 3.5000000e-03, 2.0901341e-01, 0.0
3042, 4.0000000e-03, 2.0901341e-01, 0.0
3043, 4.5000000e-03, 2.0901341e-01, 0.0
3044, 5.0000000e-03, 2.0901341e-01, 0.0
3045, 5.5000000e-03, 2.0901341e-01, 0.0
3046, 6.0000000e-03, 2.0901341e-01, 0.0
3047, 6.5000000e-03, 2.0901341e-01, 0.0
3048, 7.0000000e-03, 2.0901341e-01, 0.0
3049, 7.5000000e-03, 2.0901341e-01, 0.0
3050, 8.0000000e-03, 2.0901341e-01, 0.0
3051, 8.5000000e-03, 2.0901341e-01, 0.0
3052, 9.0000000e-03, 2.0901341e-01, 0.0
3053, 9.5000000e-03, 2.0901341e-01, 0.0
3054, 1.0000000e-02, 2.0901341e-01, 0.0
3055, 1.0500000e-02, 2.0901341e-01, 0.0
3056, 1.1000000e-02, 2.0901341e-01, 0.0
3057, 1.1500000e-02, 2.0901341e-01, 0.0
3058, 1.2000000e-02, 2.0901341e-01, 0.0
3059, 1.2500000e-02, 2.0901341e-01, 0.0
3060, 1.3000000e-02, 2.0901341e-01, 0.0
3061, 1.3353586e-02, 2.0901341e-01, 0.0
3062, 1.3500000e-02, 2.0901341e-01, 0.0
3063, 1.4000000e-02, 2.0901341e-01, 0.0
3064, 3.2121198e-02, 2.0901341e-01, 0.0
3065, 3.2000000e-02, 2.0901341e-01, 0.0
3066, 3.2500000e-02, 2.0901341e-01, 0.0
3067, 3.3000000e-02, 2.0901341e-01, 0.0
3068, 3.3500000e-02, 2.0901341e-01, 0.0
3069, 3.4000000e-02, 2.0901341e-01, 0.0
3070, 3.4500000e-02, 2.0901341e-01, 0.0
3071, 3.4914345e-02, 2.0901341e-01, 0.0
3072, 1.0000000e-03, 2.0923542e-01, 0.0
3073, 5.0000000e-04, 2.0923542e-01, 0.0
3074, 1.5000000e-03, 2.0923542e-01, 0.0
3075, 2.0000000e-03, 2.0923542e-01, 0.0
3076, 2.5000000e-03, 2.0923542e-01, 0.0
3077, 3.0000000e-03, 2.0923542e-01, 0.0
3078, 3.5000000e-03, 2.0923542e-01, 0.0
3079, 4.0000000e-03, 2.0923542e-01, 0.0
3080, 4.5000000e-03, 2.0923542e-01, 0.0
3081, 5.0000000e-03, 2.0923542e-01, 0.0
3082, 5.5000000e-03, 2.0923542e-01, 0.0
3083, 6.0000000e-03, 2.0923542e-01, 0.0
3084, 6.5000000e-03, 2.0923542e-01, 0.0
3085, 7.0000000e-03, 2.0923542e-01, 0.0
3086, 7.5000000e-03, 2.0923542e-01, 0.0
3087, 8.0000000e-03, 2.0923542e-01, 0.0
3088, 8.5000000e-03, 2.0923542e-01, 0.0
3089, 9.0000000e-03, 2.0923542e-01, 0.0
3090, 9.5000000e-03, 2.0923542e-01, 0.0
3091, 1.0000000e-02, 2.0923542e-01, 0.0
3092, 1.0500000e-02, 2.0923542e-01, 0.0
3093, 1.1000000e-02, 2.0923542e-01, 0.0
3094, 1.1500000e-02, 2.0923542e-01, 0.0
3095, 1.2000000e-02, 2.0923542e-01, 0.0
3096, 1.2500000e-02, 2.0923542e-01, 0.0
3097, 1.3000000e-02, 2.0923542e-01, 0.0
3098, 1.3353586e-02, 2.0923542e-01, 0.0
3099, 1.3500000e-02, 2.0923542e-01, 0.0
3100, 1.4000000e-02, 2.0923542e-01, 0.0
3101, 1.0000000e-03, 2.0973542e-01, 0.0
3102, 5.0000000e-04, 2.0973542e-01, 0.0
3103, 1.5000000e-03, 2.0973542e-01, 0.0
3104, 2.0000000e-03, 2.0973542e-01, 0.0
3105, 2.5000000e-03, 2.0973542e-01, 0.0
3106, 3.0000000e-03, 2.0973542e-01, 0.0
3107, 3.5000000e-03, 2.0973542e-01, 0.0
3108, 4.0000000e-03, 2.0973542e-01, 0.0
3109, 4.5000000e-03, 2.0973542e-01, 0.0
3110, 5.0000000e-03, 2.0973542e-01, 0.0
3111, 5.5000000e-03, 2.0973542e-01, 0.0
3112, 6.0000000e-03, 2.0973542e-01, 0.0
3113, 6.5000000e-03, 2.0973542e-01, 0.0
3114, 7.0000000e-03, 2.0973542e-01, 0.0
3115, 7.5000000e-03, 2.0973542e-01, 0.0
3116, 8.0000000e-03, 2.0973542e-01, 0.0
3117, 8.5000000e-03, 2.0973542e-01, 0.0
3118, 9.0000000e-03, 2.0973542e-01, 0.0
3119, 9.5000000e-03, 2.0973542e-01, 0.0
3120, 1.0000000e-02, 2.0973542e-01, 0.0
3121, 1.0500000e-02, 2.0973542e-01, 0.0
3122, 1.1000000e-02, 2.0973542e-01, 0.0
3123, 1.1500000e-02, 2.0973542e-01, 0.0
3124, 1.2000000e-02, 2.0973542e-01, 0.0
3125, 1.2500000e-02, 2.0973542e-01, 0.0
3126, 1.3000000e-02, 2.0973542e-01, 0.0
3127, 1.3353586e-02, 2.0973542e-01, 0.0
3128, 1.3500000e-02, 2.0973542e-01, 0.0
3129, 1.4000000e-02, 2.0973542e-01, 0.0
3130, 1.0000000e-03, 2.1023542e-01, 0.0
3131, 5.0000000e-04, 2.1023542e-01, 0.0
3132, 1.5000000e-03, 2.1023542e-01, 0.0
3133, 2.0000000e-03, 2.1023542e-01, 0.0
3134, 2.5000000e-03, 2.1023542e-01, 0.0
3135, 3.0000000e-03, 2.1023542e-01, 0.0
3136, 3.5000000e-03, 2.1023542e-01, 0.0
3137, 4.0000000e-03, 2.1023542e-01, 0.0
3138, 4.5000000e-03, 2.1023542e-01, 0.0
3139, 5.0000000e-03, 2.1023542e-01, 0.0
3140, 5.5000000e-03, 2.1023542e-01, 0.0
3141, 6.0000000e-03, 2.1023542e-01, 0.0
3142, 6.5000000e-03, 2.1023542e-01, 0.0
3143, 7.0000000e-03, 2.1023542e-01, 0.0
3144, 7.5000000e-03, 2.1023542e-01, 0.0
3145, 8.0000000e-03, 2.1023542e-01, 0.0
3146, 8.5000000e-03, 2.1023542e-01, 0.0
3147, 9.0000000e-03, 2.1023542e-01, 0.0
3148, 9.5000000e-03, 2.1023542e-01, 0.0
3149, 1.0000000e-02, 2.1023542e-01, 0.0
3150, 1.0500000e-02, 2.1023542e-01, 0.0
3151, 1.1000000e-02, 2.1023542e-01, 0.0
3152, 1.1500000e-02, 2.1023542e-01, 0.0
3153, 1.2000000e-02, 2.1023542e-01, 0.0
3154, 1.2500000e-02, 2.1023542e-01, 0.0
3155, 1.3000000e-02, 2.1023542e-01, 0.0
3156, 1.3353586e-02, 2.1023542e-01, 0.0
3157, 1.3500000e-02, 2.1023542e-01, 0.0
3158, 1.4000000e-02, 2.1023542e-01, 0.0
3159, 1.0000000e-03, 2.1073542e-01, 0.0
3160, 5.0000000e-04, 2.1073542e-01, 0.0
3161, 1.5000000e-03, 2.1073542e-01, 0.0
3162, 2.0000000e-03, 2.1073542e-01, 0.0
3163, 2.5000000e-03, 2.1073542e-01, 0.0
3164, 3.0000000e-03, 2.1073542e-01, 0.0
3165, 3.5000000e-03, 2.1073542e-01, 0.0
3166, 4.0000000e-03, 2.1073542e-01, 0.0
3167, 4.5000000e-03, 2.1073542e-01, 0.0
3168, 5.0000000e-03, 2.1073542e-01, 0.0
3169, 5.5000000e-03, 2.1073542e-01, 0.0
3170, 6.0000000e-03, 2.1073542e-01, 0.0
3171, 6.5000000e-03, 2.1073542e-01, 0.0
3172, 7.0000000e-03, 2.1073542e-01, 0.0
3173, 7.5000000e-03, 2.1073542e-01, 0.0
3174, 8.0000000e-03, 2.1073542e-01, 0.0
3175, 8.5000000e-03, 2.1073542e-01, 0.0
3176, 9.0000000e-03, 2.1073542e-01, 0.0
3177, 9.5000000e-03, 2.1073542e-01, 0.0
3178, 1.0000000e-02, 2.1073542e-01, 0.0
3179, 1.0500000e-02, 2.1073542e-01, 0.0
3180, 1.1000000e-02, 2.1073542e-01, 0.0
3181, 1.1500000e-02, 2.1073542e-01, 0.0
3182, 1.2000000e-02, 2.1073542e-01, 0.0
3183, 1.2500000e-02, 2.1073542e-01, 0.0
3184, 1.3000000e-02, 2.1073542e-01, 0.0
3185, 1.3353586e-02, 2.1073542e-01, 0.0
3186, 1.3500000e-02, 2.1073542e-01, 0.0
3187, 1.4000000e-02, 2.1073542e-01, 0.0
3188, 1.0000000e-03, 2.1123542e-01, 0.0
3189, 5.0000000e-04, 2.1123542e-01, 0.0
3190, 1.5000000e-03, 2.1123542e-01, 0.0
3191, 2.0000000e-03, 2.1123542e-01, 0.0
3192, 2.5000000e-03, 2.1123542e-01, 0.0
3193, 3.0000000e-03, 2.1123542e-01, 0.0
3194, 3.5000000e-03, 2.1123542e-01, 0.0
3195, 4.0000000e-03, 2.1123542e-01, 0.0
3196, 4.5000000e-03, 2.1123542e-01, 0.0
3197, 5.0000000e-03, 2.1123542e-01, 0.0
3198, 5.5000000e-03, 2.1123542e-01, 0.0
3199, 6.0000000e-03, 2.1123542e-01, 0.0
3200, 6.5000000e-03, 2.1123542e-01, 0.0
3201, 7.0000000e-03, 2.1123542e-01, 0.0
3202, 7.5000000e-03, 2.1123542e-01, 0.0
3203, 8.0000000e-03, 2.1123542e-01, 0.0
3204, 8.5000000e-03, 2.1123542e-01, 0.0
3205, 9.0000000e-03, 2.1123542e-01, 0.0
3206, 9.5000000e-03, 2.1123542e-01, 0.0
3207, 1.0000000e-02, 2.1123542e-01, 0.0
3208, 1.0500000e-02, 2.1123542e-01, 0.0
3209, 1.1000000e-02, 2.1123542e-01, 0.0
3210, 1.1500000e-02, 2.1123542e-01, 0.0
3211, 1.2000000e-02, 2.1123542e-01, 0.0
3212, 1.2500000e-02, 2.1123542e-01, 0.0
3213, 1.3000000e-02, 2.1123542e-01, 0.0
3214, 1.3353586e-02, 2.1123542e-01, 0.0
3215, 1.3500000e-02, 2.1123542e-01, 0.0
3216, 1.4000000e-02, 2.1123542e-01, 0.0
3217, 1.0000000e-03, 2.1173542e-01, 0.0
3218, 5.0000000e-04, 2.1173542e-01, 0.0
3219, 1.5000000e-03, 2.1173542e-01, 0.0
3220, 2.0000000e-03, 2.1173542e-01, 0.0
3221, 2.5000000e-03, 2.1173542e-01, 0.0
3222, 3.0000000e-03, 2.1173542e-01, 0.0
3223, 3.5000000e-03, 2.1173542e-01, 0.0
3224, 4.0000000e-03, 2.1173542e-01, 0.0
3225, 4.5000000e-03, 2.1173542e-01, 0.0
3226, 5.0000000e-03, 2.1173542e-01, 0.0
3227, 5.5000000e-03, 2.1173542e-01, 0.0
3228, 6.0000000e-03, 2.1173542e-01, 0.0
3229, 6.5000000e-03, 2.1173542e-01, 0.0
3230, 7.0000000e-03, 2.1173542e-01, 0.0
3231, 7.5000000e-03, 2.1173542e-01, 0.0
3232, 8.0000000e-03, 2.1173542e-01, 0.0
3233, 8.5000000e-03, 2.1173542e-01, 0.0
3234, 9.0000000e-03, 2.1173542e-01, 0.0
3235, 9.5000000e-03, 2.1173542e-01, 0.0
3236, 1.0000000e-02, 2.1173542e-01, 0.0
3237, 1.0500000e-02, 2.1173542e-01, 0.0
3238, 1.1000000e-02, 2.1173542e-01, 0.0
3239, 1.1500000e-02, 2.1173542e-01, 0.0
3240, 1.2000000e-02, 2.1173542e-01, 0.0
3241, 1.2500000e-02, 2.1173542e-01, 0.0
3242, 1.3000000e-02, 2.1173542e-01, 0.0
3243, 1.3353586e-02, 2.1173542e-01, 0.0
3244, 1.3500000e-02, 2.1173542e-01, 0.0
3245, 1.4000000e-02, 2.1173542e-01, 0.0
3246, 1.0000000e-03, 2.1223542e-01, 0.0
3247, 5.0000000e-04, 2.1223542e-01, 0.0
3248, 1.5000000e-03, 2.1223542e-01, 0.0
3249, 2.0000000e-03, 2.1223542e-01, 0.0
3250, 2.5000000e-03, 2.1223542e-01, 0.0
3251, 3.0000000e-03, 2.1223542e-01, 0.0
3252, 3.5000000e-03, 2.1223542e-01, 0.0
3253, 4.0000000e-03, 2.1223542e-01, 0.0
3254, 4.5000000e-03, 2.1223542e-01, 0.0
3255, 5.0000000e-03, 2.1223542e-01, 0.0
3256, 5.5000000e-03, 2.1223542e-01, 0.0
3257, 6.0000000e-03, 2.1223542e-01, 0.0
3258, 6.5000000e-03, 2.1223542e-01, 0.0
3259, 7.0000000e-03, 2.1223542e-01, 0.0
3260, 7.5000000e-03, 2.1223542e-01, 0.0
3261, 8.0000000e-03, 2.1223542e-01, 0.0
3262, 8.5000000e-03, 2.1223542e-01, 0.0
3263, 9.0000000e-03, 2.1223542e-01, 0.0
3264, 9.5000000e-03, 2.1223542e-01, 0.0
3265, 1.0000000e-02, 2.1223542e-01, 0.0
3266, 1.0500000e-02, 2.1223542e-01, 0.0
3267, 1.1000000e-02, 2.1223542e-01, 0.0
3268, 1.1500000e-02, 2.1223542e-01, 0.0
3269, 1.2000000e-02, 2.1223542e-01, 0.0
3270, 1.2500000e-02, 2.1223542e-01, 0.0
3271, 1.3000000e-02, 2.1223542e-01, 0.0
3272, 1.3353586e-02, 2.1223542e-01, 0.0
3273, 1.3500000e-02, 2.1223542e-01, 0.0
3274, 1.4000000e-02, 2.1223542e-01, 0.0
3275, 1.0000000e-03, 2.1273542e-01, 0.0
3276, 5.0000000e-04, 2.1273542e-01, 0.0
3277, 1.5000000e-03, 2.1273542e-01, 0.0
3278, 2.0000000e-03, 2.1273542e-01, 0.0
3279, 2.5000000e-03, 2.1273542e-01, 0.0
3280, 3.0000000e-03, 2.1273542e-01, 0.0
3281, 3.5000000e-03, 2.1273542e-01, 0.0
3282, 4.0000000e-03, 2.1273542e-01, 0.0
3283, 4.5000000e-03, 2.1273542e-01, 0.0
3284, 5.0000000e-03, 2.1273542e-01, 0.0
3285, 5.5000000e-03, 2.1273542e-01, 0.0
3286, 6.0000000e-03, 2.1273542e-01, 0.0
3287, 6.5000000e-03, 2.1273542e-01, 0.0
3288, 7.0000000e-03, 2.1273542e-01, 0.0
3289, 7.5000000e-03, 2.1273542e-01, 0.0
3290, 8.0000000e-03, 2.1273542e-01, 0.0
3291, 8.5000000e-03, 2.1273542e-01, 0.0
3292, 9.0000000e-03, 2.1273542e-01, 0.0
3293, 9.5000000e-03, 2.1273542e-01, 0.0
3294, 1.0000000e-02, 2.1273542e-01, 0.0
3295, 1.0500000e-02, 2.1273542e-01, 0.0
3296, 1.1000000e-02, 2.1273542e-01, 0.0
3297, 1.1500000e-02, 2.1273542e-01, 0.0
3298, 1.2000000e-02, 2.1273542e-01, 0.0
3299, 1.2500000e-02, 2.1273542e-01, 0.0
3300, 1.3000000e-02, 2.1273542e-01, 0.0
3301, 1.3353586e-02, 2.1273542e-01, 0.0
3302, 1.3500000e-02, 2.1273542e-01, 0.0
3303, 1.4000000e-02, 2.1273542e-01, 0.0
3304, 1.0000000e-03, 2.1323542e-01, 0.0
3305, 5.0000000e-04, 2.1323542e-01, 0.0
3306, 1.5000000e-03, 2.1323542e-01, 0.0
3307, 2.0000000e-03, 2.1323542e-01, 0.0
3308, 2.5000000e-03, 2.1323542e-01, 0.0
3309, 3.0000000e-03, 2.1323542e-01, 0.0
3310, 3.5000000e-03, 2.1323542e-01, 0.0
3311, 4.0000000e-03, 2.1323542e-01, 0.0
3312, 4.5000000e-03, 2.1323542e-01, 0.0
3313, 5.0000000e-03, 2.1323542e-01, 0.0
3314, 5.5000000e-03, 2.1323542e-01, 0.0
3315, 6.0000000e-03, 2.1323542e-01, 0.0
3316, 6.5000000e-03, 2.1323542e-01, 0.0
3317, 7.0000000e-03, 2.1323542e-01, 0.0
3318, 7.5000000e-03, 2.1323542e-01, 0.0
3319, 8.0000000e-03, 2.1323542e-01, 0.0
3320, 8.5000000e-03, 2.1323542e-01, 0.0
3321, 9.0000000e-03, 2.1323542e-01, 0.0
3322, 9.5000000e-03, 2.1323542e-01, 0.0
3323, 1.0000000e-02, 2.1323542e-01, 0.0
3324, 1.0500000e-02, 2.1323542e-01, 0.0
3325, 1.1000000e-02, 2.1323542e-01, 0.0
3326, 1.1500000e-02, 2.1323542e-01, 0.0
3327, 1.2000000e-02, 2.1323542e-01, 0.0
3328, 1.2500000e-02, 2.1323542e-01, 0.0
3329, 1.3000000e-02, 2.1323542e-01, 0.0
3330, 1.3353586e-02, 2.1323542e-01, 0.0
3331, 1.3500000e-02, 2.1323542e-01, 0.0
3332, 1.4000000e-02, 2.1323542e-01, 0.0
3333, 1.0000000e-03, 2.1373542e-01, 0.0
3334, 5.0000000e-04, 2.1373542e-01, 0.0
3335, 1.5000000e-03, 2.1373542e-01, 0.0
3336, 2.0000000e-03, 2.1373542e-01, 0.0
3337, 2.5000000e-03, 2.1373542e-01, 0.0
3338, 3.0000000e-03, 2.1373542e-01, 0.0
3339, 3.5000000e-03, 2.1373542e-01, 0.0
3340, 4.0000000e-03, 2.1373542e-01, 0.0
3341, 4.5000000e-03, 2.1373542e-01, 0.0
3342, 5.0000000e-03, 2.1373542e-01, 0.0
3343, 5.5000000e-03, 2.1373542e-01, 0.0
3344, 6.0000000e-03, 2.1373542e-01, 0.0
3345, 6.5000000e-03, 2.1373542e-01, 0.0
3346, 7.0000000e-03, 2.1373542e-01, 0.0
3347, 7.5000000e-03, 2.1373542e-01, 0.0
3348, 8.0000000e-03, 2.1373542e-01, 0.0
3349, 8.5000000e-03, 2.1373542e-01, 0.0
3350, 9.0000000e-03, 2.1373542e-01, 0.0
3351, 9.5000000e-03, 2.1373542e-01, 0.0
3352, 1.0000000e-02, 2.1373542e-01, 0.0
3353, 1.0500000e-02, 2.1373542e-01, 0.0
3354, 1.1000000e-02, 2.1373542e-01, 0.0
3355, 1.1500000e-02, 2.1373542e-01, 0.0
3356, 1.2000000e-02, 2.1373542e-01, 0.0
3357, 1.2500000e-02, 2.1373542e-01, 0.0
3358, 1.3000000e-02, 2.1373542e-01, 0.0
3359, 1.3353586e-02, 2.1373542e-01, 0.0
3360, 1.3500000e-02, 2.1373542e-01, 0.0
3361, 1.4000000e-02, 2.1373542e-01, 0.0
3362, 1.0000000e-03, 2.1423542e-01, 0.0
3363, 5.0000000e-04, 2.1423542e-01, 0.0
3364, 1.5000000e-03, 2.1423542e-01, 0.0
3365, 2.0000000e-03, 2.1423542e-01, 0.0
3366, 2.5000000e-03, 2.1423542e-01, 0.0
3367, 3.0000000e-03, 2.1423542e-01, 0.0
3368, 3.5000000e-03, 2.1423542e-01, 0.0
3369, 4.0000000e-03, 2.1423542e-01, 0.0
3370, 4.5000000e-03, 2.1423542e-01, 0.0
3371, 5.0000000e-03, 2.1423542e-01, 0.0
3372, 5.5000000e-03, 2.1423542e-01, 0.0
3373, 6.0000000e-03, 2.1423542e-01, 0.0
3374, 6.5000000e-03, 2.1423542e-01, 0.0
3375, 7.0000000e-03, 2.1423542e-01, 0.0
3376, 7.5000000e-03, 2.1423542e-01, 0.0
3377, 8.0000000e-03, 2.1423542e-01, 0.0
3378, 8.5000000e-03, 2.1423542e-01, 0.0
3379, 9.0000000e-03, 2.1423542e-01, 0.0
3380, 9.5000000e-03, 2.1423542e-01, 0.0
3381, 1.0000000e-02, 2.1423542e-01, 0.0
3382, 1.0500000e-02, 2.1423542e-01, 0.0
3383, 1.1000000e-02, 2.1423542e-01, 0.0
3384, 1.1500000e-02, 2.1423542e-01, 0.0
3385, 1.2000000e-02, 2.1423542e-01, 0.0
3386, 1.2500000e-02, 2.1423542e-01, 0.0
3387, 1.3000000e-02, 2.1423542e-01, 0.0
3388, 1.3353586e-02, 2.1423542e-01, 0.0
3389, 1.3500000e-02, 2.1423542e-01, 0.0
3390, 1.0000000e-03, 2.1473542e-01, 0.0
3391, 5.0000000e-04, 2.1473542e-01, 0.0
3392, 1.5000000e-03, 2.1473542e-01, 0.0
3393, 2.0000000e-03, 2.1473542e-01, 0.0
3394, 2.5000000e-03, 2.1473542e-01, 0.0
3395, 3.0000000e-03, 2.1473542e-01, 0.0
3396, 3.5000000e-03, 2.1473542e-01, 0.0
3397, 4.0000000e-03, 2.1473542e-01, 0.0
3398, 4.5000000e-03, 2.1473542e-01, 0.0
3399, 5.0000000e-03, 2.1473542e-01, 0.0
3400, 5.5000000e-03, 2.1473542e-01, 0.0
3401, 6.0000000e-03, 2.1473542e-01, 0.0
3402, 6.5000000e-03, 2.1473542e-01, 0.0
3403, 7.0000000e-03, 2.1473542e-01, 0.0
3404, 7.5000000e-03, 2.1473542e-01, 0.0
3405, 8.0000000e-03, 2.1473542e-01, 0.0
3406, 8.5000000e-03, 2.1473542e-01, 0.0
3407, 9.0000000e-03, 2.1473542e-01, 0.0
3408, 9.5000000e-03, 2.1473542e-01, 0.0
3409, 1.0000000e-02, 2.1473542e-01, 0.0
3410, 1.0500000e-02, 2.1473542e-01, 0.0
3411, 1.1000000e-02, 2.1473542e-01, 0.0
3412, 1.1500000e-02, 2.1473542e-01, 0.0
3413, 1.2000000e-02, 2.1473542e-01, 0.0
3414, 1.2500000e-02, 2.1473542e-01, 0.0
3415, 1.3000000e-02, 2.1473542e-01, 0.0
3416, 1.3353586e-02, 2.1473542e-01, 0.0
3417, 1.3500000e-02, 2.1473542e-01, 0.0
3418, 1.0000000e-03, 2.1523542e-01, 0.0
3419, 5.0000000e-04, 2.1523542e-01, 0.0
3420, 1.5000000e-03, 2.1523542e-01, 0.0
3421, 2.0000000e-03, 2.1523542e-01, 0.0
3422, 2.5000000e-03, 2.1523542e-01, 0.0
3423, 3.0000000e-03, 2.1523542e-01, 0.0
3424, 3.5000000e-03, 2.1523542e-01, 0.0
3425, 4.0000000e-03, 2.1523542e-01, 0.0
3426, 4.5000000e-03, 2.1523542e-01, 0.0
3427, 5.0000000e-03, 2.1523542e-01, 0.0
3428, 5.5000000e-03, 2.1523542e-01, 0.0
3429, 6.0000000e-03, 2.1523542e-01, 0.0
3430, 6.5000000e-03, 2.1523542e-01, 0.0
3431, 7.0000000e-03, 2.1523542e-01, 0.0
3432, 7.5000000e-03, 2.1523542e-01, 0.0
3433, 8.0000000e-03, 2.1523542e-01, 0.0
3434, 8.5000000e-03, 2.1523542e-01, 0.0
3435, 9.0000000e-03, 2.1523542e-01, 0.0
3436, 9.5000000e-03, 2.1523542e-01, 0.0
3437, 1.0000000e-02, 2.1523542e-01, 0.0
3438, 1.0500000e-02, 2.1523542e-01, 0.0
3439, 1.1000000e-02, 2.1523542e-01, 0.0
3440, 1.1500000e-02, 2.1523542e-01, 0.0
3441, 1.2000000e-02, 2.1523542e-01, 0.0
3442, 1.2500000e-02, 2.1523542e-01, 0.0
3443, 1.3000000e-02, 2.1523542e-01, 0.0
3444, 1.3353586e-02, 2.1523542e-01, 0.0
3445, 1.3500000e-02, 2.1523542e-01, 0.0
3446, 1.0000000e-03, 2.1573542e-01, 0.0
3447, 5.0000000e-04, 2.1573542e-01, 0.0
3448, 1.5000000e-03, 2.1573542e-01, 0.0
3449, 2.0000000e-03, 2.1573542e-01, 0.0
3450, 2.5000000e-03, 2.1573542e-01, 0.0
3451, 3.0000000e-03, 2.1573542e-01, 0.0
3452, 3.5000000e-03, 2.1573542e-01, 0.0
3453, 4.0000000e-03, 2.1573542e-01, 0.0
3454, 4.5000000e-03, 2.1573542e-01, 0.0
3455, 5.0000000e-03, 2.1573542e-01, 0.0
3456, 5.5000000e-03, 2.1573542e-01, 0.0
3457, 6.0000000e-03, 2.1573542e-01, 0.0
3458, 6.5000000e-03, 2.1573542e-01, 0.0
3459, 7.0000000e-03, 2.1573542e-01, 0.0
3460, 7.5000000e-03, 2.1573542e-01, 0.0
3461, 8.0000000e-03, 2.1573542e-01, 0.0
3462, 8.5000000e-03, 2.1573542e-01, 0.0
3463, 9.0000000e-03, 2.1573542e-01, 0.0
3464, 9.5000000e-03, 2.1573542e-01, 0.0
3465, 1.0000000e-02, 2.1573542e-01, 0.0
3466, 1.0500000e-02, 2.1573542e-01, 0.0
3467, 1.1000000e-02, 2.1573542e-01, 0.0
3468, 1.1500000e-02, 2.1573542e-01, 0.0
3469, 1.2000000e-02, 2.1573542e-01, 0.0
3470, 1.2500000e-02, 2.1573542e-01, 0.0
3471, 1.3000000e-02, 2.1573542e-01, 0.0
3472, 1.3353586e-02, 2.1573542e-01, 0.0
3473, 1.3500000e-02, 2.1573542e-01, 0.0
3474, 1.0000000e-03, 2.1623542e-01, 0.0
3475, 5.0000000e-04, 2.1623542e-01, 0.0
3476, 1.5000000e-03, 2.1623542e-01, 0.0
3477, 2.0000000e-03, 2.1623542e-01, 0.0
3478, 2.5000000e-03, 2.1623542e-01, 0.0
3479, 3.0000000e-03, 2.1623542e-01, 0.0
3480, 3.5000000e-03, 2.1623542e-01, 0.0
3481, 4.0000000e-03, 2.1623542e-01, 0.0
3482, 4.5000000e-03, 2.1623542e-01, 0.0
3483, 5.0000000e-03, 2.1623542e-01, 0.0
3484, 5.5000000e-03, 2.1623542e-01, 0.0
3485, 6.0000000e-03, 2.1623542e-01, 0.0
3486, 6.5000000e-03, 2.1623542e-01, 0.0
3487, 7.0000000e-03, 2.1623542e-01, 0.0
3488, 7.5000000e-03, 2.1623542e-01, 0.0
3489, 8.0000000e-03, 2.1623542e-01, 0.0
3490, 8.5000000e-03, 2.1623542e-01, 0.0
3491, 9.0000000e-03, 2.1623542e-01, 0.0
3492, 9.5000000e-03, 2.1623542e-01, 0.0
3493, 1.0000000e-02, 2.1623542e-01, 0.0
3494, 1.0500000e-02, 2.1623542e-01, 0.0
3495, 1.1000000e-02, 2.1623542e-01, 0.0
3496, 1.1500000e-02, 2.1623542e-01, 0.0
3497, 1.2000000e-02, 2.1623542e-01, 0.0
3498, 1.2500000e-02, 2.1623542e-01, 0.0
3499, 1.3000000e-02, 2.1623542e-01, 0.0
3500, 1.3353586e-02, 2.1623542e-01, 0.0
3501, 1.3500000e-02, 2.1623542e-01, 0.0
3502, 1.0000000e-03, 2.1673542e-01, 0.0
3503, 5.0000000e-04, 2.1673542e-01, 0.0
3504, 1.5000000e-03, 2.1673542e-01, 0.0
3505, 2.0000000e-03, 2.1673542e-01, 0.0
3506, 2.5000000e-03, 2.1673542e-01, 0.0
3507, 3.0000000e-03, 2.1673542e-01, 0.0
3508, 3.5000000e-03, 2.1673542e-01, 0.0
3509, 4.0000000e-03, 2.1673542e-01, 0.0
3510, 4.5000000e-03, 2.1673542e-01, 0.0
3511, 5.0000000e-03, 2.1673542e-01, 0.0
3512, 5.5000000e-03, 2.1673542e-01, 0.0
3513, 6.0000000e-03, 2.1673542e-01, 0.0
3514, 6.5000000e-03, 2.1673542e-01, 0.0
3515, 7.0000000e-03, 2.1673542e-01, 0.0
3516, 7.5000000e-03, 2.1673542e-01, 0.0
3517, 8.0000000e-03, 2.1673542e-01, 0.0
3518, 8.5000000e-03, 2.1673542e-01, 0.0
3519, 9.0000000e-03, 2.1673542e-01, 0.0
3520, 9.5000000e-03, 2.1673542e-01, 0.0
3521, 1.0000000e-02, 2.1673542e-01, 0.0
3522, 1.0500000e-02, 2.1673542e-01, 0.0
3523, 1.1000000e-02, 2.1673542e-01, 0.0
3524, 1.1500000e-02, 2.1673542e-01, 0.0
3525, 1.2000000e-02, 2.1673542e-01, 0.0
3526, 1.2500000e-02, 2.1673542e-01, 0.0
3527, 1.3000000e-02, 2.1673542e-01, 0.0
3528, 1.3353586e-02, 2.1673542e-01, 0.0
3529, 1.3500000e-02, 2.1673542e-01, 0.0
3530, 1.0000000e-03, 2.1723542e-01, 0.0
3531, 5.0000000e-04, 2.1723542e-01, 0.0
3532, 1.5000000e-03, 2.1723542e-01, 0.0
3533, 2.0000000e-03, 2.1723542e-01, 0.0
3534, 2.5000000e-03, 2.1723542e-01, 0.0
3535, 3.0000000e-03, 2.1723542e-01, 0.0
3536, 3.5000000e-03, 2.1723542e-01, 0.0
3537, 4.0000000e-03, 2.1723542e-01, 0.0
3538, 4.5000000e-03, 2.1723542e-01, 0.0
3539, 5.0000000e-03, 2.1723542e-01, 0.0
3540, 5.5000000e-03, 2.1723542e-01, 0.0
3541, 6.0000000e-03, 2.1723542e-01, 0.0
3542, 6.5000000e-03, 2.1723542e-01, 0.0
3543, 7.0000000e-03, 2.1723542e-01, 0.0
3544, 7.5000000e-03, 2.1723542e-01, 0.0
3545, 8.0000000e-03, 2.1723542e-01, 0.0
3546, 8.5000000e-03, 2.1723542e-01, 0.0
3547, 9.0000000e-03, 2.1723542e-01, 0.0
3548, 9.5000000e-03, 2.1723542e-01, 0.0
3549, 1.0000000e-02, 2.1723542e-01, 0.0
3550, 1.0500000e-02, 2.1723542e-01, 0.0
3551, 1.1000000e-02, 2.1723542e-01, 0.0
3552, 1.1500000e-02, 2.1723542e-01, 0.0
3553, 1.2000000e-02, 2.1723542e-01, 0.0
3554, 1.2500000e-02, 2.1723542e-01, 0.0
3555, 1.3000000e-02, 2.1723542e-01, 0.0
3556, 1.3353586e-02, 2.1723542e-01, 0.0
3557, 1.3500000e-02, 2.1723542e-01, 0.0
3558, 1.0000000e-03, 2.1773542e-01, 0.0
3559, 5.0000000e-04, 2.1773542e-01, 0.0
3560, 1.5000000e-03, 2.1773542e-01, 0.0
3561, 2.0000000e-03, 2.1773542e-01, 0.0
3562, 2.5000000e-03, 2.1773542e-01, 0.0
3563, 3.0000000e-03, 2.1773542e-01, 0.0
3564, 3.5000000e-03, 2.1773542e-01, 0.0
3565, 4.0000000e-03, 2.1773542e-01, 0.0
3566, 4.5000000e-03, 2.1773542e-01, 0.0
3567, 5.0000000e-03, 2.1773542e-01, 0.0
3568, 5.5000000e-03, 2.1773542e-01, 0.0
3569, 6.0000000e-03, 2.1773542e-01, 0.0
3570, 6.5000000e-03, 2.1773542e-01, 0.0
3571, 7.0000000e-03, 2.1773542e-01, 0.0
3572, 7.5000000e-03, 2.1773542e-01, 0.0
3573, 8.0000000e-03, 2.1773542e-01, 0.0
3574, 8.5000000e-03, 2.1773542e-01, 0.0
3575, 9.0000000e-03, 2.1773542e-01, 0.0
3576, 9.5000000e-03, 2.1773542e-01, 0.0
3577, 1.0000000e-02, 2.1773542e-01, 0.0
3578, 1.0500000e-02, 2.1773542e-01, 0.0
3579, 1.1000000e-02, 2.1773542e-01, 0.0
3580, 1.1500000e-02, 2.1773542e-01, 0.0
3581, 1.2000000e-02, 2.1773542e-01, 0.0
3582, 1.2500000e-02, 2.1773542e-01, 0.0
3583, 1.3000000e-02, 2.1773542e-01, 0.0
3584, 1.3353586e-02, 2.1773542e-01, 0.0
3585, 1.3500000e-02, 2.1773542e-01, 0.0
3586, 1.0000000e-03, 2.1823542e-01, 0.0
3587, 5.0000000e-04, 2.1823542e-01, 0.0
3588, 1.5000000e-03, 2.1823542e-01, 0.0
3589, 2.0000000e-03, 2.1823542e-01, 0.0
3590, 2.5000000e-03, 2.1823542e-01, 0.0
3591, 3.0000000e-03, 2.1823542e-01, 0.0
3592, 3.5000000e-03, 2.1823542e-01, 0.0
3593, 4.0000000e-03, 2.1823542e-01, 0.0
3594, 4.5000000e-03, 2.1823542e-01, 0.0
3595, 5.0000000e-03, 2.1823542e-01, 0.0
3596, 5.5000000e-03, 2.1823542e-01, 0.0
3597, 6.0000000e-03, 2.1823542e-01, 0.0
3598, 6.5000000e-03, 2.1823542e-01, 0.0
3599, 7.0000000e-03, 2.1823542e-01, 0.0
3600, 7.5000000e-03, 2.1823542e-01, 0.0
3601, 8.0000000e-03, 2.1823542e-01, 0.0
3602, 8.5000000e-03, 2.1823542e-01, 0.0
3603, 9.0000000e-03, 2.1823542e-01, 0.0
3604, 9.5000000e-03, 2.1823542e-01, 0.0
3605, 1.0000000e-02, 2.1823542e-01, 0.0
3606, 1.0500000e-02, 2.1823542e-01, 0.0
3607, 1.1000000e-02, 2.1823542e-01, 0.0
3608, 1.1500000e-02, 2.1823542e-01, 0.0
3609, 1.2000000e-02, 2.1823542e-01, 0.0
3610, 1.2500000e-02, 2.1823542e-01, 0.0
3611, 1.3000000e-02, 2.1823542e-01, 0.0
3612, 1.3353586e-02, 2.1823542e-01, 0.0
3613, 1.3500000e-02, 2.1823542e-01, 0.0
3614, 1.0000000e-03, 2.1873542e-01, 0.0
3615, 5.0000000e-04, 2.1873542e-01, 0.0
3616, 1.5000000e-03, 2.1873542e-01, 0.0
3617, 2.0000000e-03, 2.1873542e-01, 0.0
3618, 2.5000000e-03, 2.1873542e-01, 0.0
3619, 3.0000000e-03, 2.1873542e-01, 0.0
3620, 3.5000000e-03, 2.1873542e-01, 0.0
3621, 4.0000000e-03, 2.1873542e-01, 0.0
3622, 4.5000000e-03, 2.1873542e-01, 0.0
3623, 5.0000000e-03, 2.1873542e-01, 0.0
3624, 5.5000000e-03, 2.1873542e-01, 0.0
3625, 6.0000000e-03, 2.1873542e-01, 0.0
3626, 6.5000000e-03, 2.1873542e-01, 0.0
3627, 7.0000000e-03, 2.1873542e-01, 0.0
3628, 7.5000000e-03, 2.1873542e-01, 0.0
3629, 8.0000000e-03, 2.1873542e-01, 0.0
3630, 8.5000000e-03, 2.1873542e-01, 0.0
3631, 9.0000000e-03, 2.1873542e-01, 0.0
3632, 9.5000000e-03, 2.1873542e-01, 0.0
3633, 1.0000000e-02, 2.1873542e-01, 0.0
3634, 1.0500000e-02, 2.1873542e-01, 0.0
3635, 1.1000000e-02, 2.1873542e-01, 0.0
3636, 1.1500000e-02, 2.1873542e-01, 0.0
3637, 1.2000000e-02, 2.1873542e-01, 0.0
3638, 1.2500000e-02, 2.1873542e-01, 0.0
3639, 1.3000000e-02, 2.1873542e-01, 0.0
3640, 1.3353586e-02, 2.1873542e-01, 0.0
3641, 1.0000000e-03, 2.1894892e-01, 0.0
3642, 5.0000000e-04, 2.1894892e-01, 0.0
3643, 1.5000000e-03, 2.1894892e-01, 0.0
3644, 2.0000000e-03, 2.1894892e-01, 0.0
3645, 2.5000000e-03, 2.1894892e-01, 0.0
3646, 3.0000000e-03, 2.1894892e-01, 0.0
3647, 3.5000000e-03, 2.1894892e-01, 0.0
3648, 4.0000000e-03, 2.1894892e-01, 0.0
3649, 4.5000000e-03, 2.1894892e-01, 0.0
3650, 5.0000000e-03, 2.1894892e-01, 0.0
3651, 5.5000000e-03, 2.1894892e-01, 0.0
3652, 6.0000000e-03, 2.1894892e-01, 0.0
3653, 6.5000000e-03, 2.1894892e-01, 0.0
3654, 7.0000000e-03, 2.1894892e-01, 0.0
3655, 7.5000000e-03, 2.1894892e-01, 0.0
3656, 8.0000000e-03, 2.1894892e-01, 0.0
3657, 8.5000000e-03, 2.1894892e-01, 0.0
3658, 9.0000000e-03, 2.1894892e-01, 0.0
3659, 9.5000000e-03, 2.1894892e-01, 0.0
3660, 1.0000000e-02, 2.1894892e-01, 0.0
3661, 1.0500000e-02, 2.1894892e-01, 0.0
3662, 1.1000000e-02, 2.1894892e-01, 0.0
3663, 1.1500000e-02, 2.1894892e-01, 0.0
3664, 1.2000000e-02, 2.1894892e-01, 0.0
3665, 1.2500000e-02, 2.1894892e-01, 0.0
3666, 1.3000000e-02, 2.1894892e-01, 0.0
3667, 1.3353586e-02, 2.1894892e-01, 0.0
*ELEMENT, TYPE=CAX4, ELSET=DISC
1, 1, 2, 3, 4
2, 2, 5, 6, 3
3, 5, 7, 8, 6
4, 7, 9, 10, 8
5, 9, 11, 12, 10
6, 11, 13, 14, 12
7, 13, 15, 16, 14
8, 15, 17, 18, 16
9, 17, 19, 20, 18
10, 19, 21, 22, 20
11, 21, 23, 24, 22
12, 23, 25, 26, 24
13, 25, 27, 28, 26
14, 27, 29, 30, 28
15, 29, 31, 32, 30
16, 31, 33, 34, 32
17, 33, 35, 36, 34
18, 35, 37, 38, 36
19, 37, 39, 40, 38
20, 39, 41, 42, 40
21, 41, 43, 44, 42
22, 43, 45, 46, 44
23, 45, 47, 48, 46
24, 47, 49, 50, 48
25, 49, 51, 52, 50
26, 51, 53, 54, 52
27, 4, 3, 55, 56
28, 3, 6, 57, 55
29, 6, 8, 58, 57
30, 8, 10, 59, 58
31, 10, 12, 60, 59
32, 12, 14, 61, 60
33, 14, 16, 62, 61
34, 16, 18, 63, 62
35, 18, 20, 64, 63
36, 20, 22, 65, 64
37, 22, 24, 66, 65
38, 24, 26, 67, 66
39, 26, 28, 68, 67
40, 28, 30, 69, 68
41, 30, 32, 70, 69
42, 32, 34, 71, 70
43, 34, 36, 72, 71
44, 36, 38, 73, 72
45, 38, 40, 74, 73
46, 40, 42, 75, 74
47, 42, 44, 76, 75
48, 44, 46, 77, 76
49, 46, 48, 78, 77
50, 48, 50, 79, 78
51, 50, 52, 80, 79
52, 52, 54, 81, 80
53, 56, 55, 82, 83
54, 55, 57, 84, 82
55, 57, 58, 85, 84
56, 58, 59, 86, 85
57, 59, 60, 87, 86
58, 60, 61, 88, 87
59, 61, 62, 89, 88
60, 62, 63, 90, 89
61, 63, 64, 91, 90
62, 64, 65, 92, 91
63, 65, 66, 93, 92
64, 66, 67, 94, 93
65, 67, 68, 95, 94
66, 68, 69, 96, 95
67, 69, 70, 97, 96
68, 70, 71, 98, 97
69, 71, 72, 99, 98
70, 72, 73, 100, 99
71, 73, 74, 101, 100
72, 74, 75, 102, 101
73, 75, 76, 103, 102
74, 76, 77, 104, 103
75, 77, 78, 105, 104
76, 78, 79, 106, 105
77, 79, 80, 107, 106
78, 80, 81, 108, 107
79, 81, 109, 110, 108
80, 83, 82, 111, 112
81, 82, 84, 113, 111
82, 84, 85, 114, 113
83, 85, 86, 115, 114
84, 86, 87, 116, 115
85, 87, 88, 117, 116
86, 88, 89, 118, 117
87, 89, 90, 119, 118
88, 90, 91, 120, 119
89, 91, 92, 121, 120
90, 92, 93, 122, 121
91, 93, 94, 123, 122
92, 94, 95, 124, 123
93, 95, 96, 125, 124
94, 96, 97, 126, 125
95, 97, 98, 127, 126
96, 98, 99, 128, 127
97, 99, 100, 129, 128
98, 100, 101, 130, 129
99, 101, 102, 131, 130
100, 102, 103, 132, 131
101, 103, 104, 133, 132
102, 104, 105, 134, 133
103, 105, 106, 135, 134
104, 106, 107, 136, 135
105, 107, 108, 137, 136
106, 108, 110, 138, 137
107, 112, 111, 139, 140
108, 111, 113, 141, 139
109, 113, 114, 142, 141
110, 114, 115, 143, 142
111, 115, 116, 144, 143
112, 116, 117, 145, 144
113, 117, 118, 146, 145
114, 118, 119, 147, 146
115, 119, 120, 148, 147
116, 120, 121, 149, 148
117, 121, 122, 150, 149
118, 122, 123, 151, 150
119, 123, 124, 152, 151
120, 124, 125, 153, 152
121, 125, 126, 154, 153
122, 126, 127, 155, 154
123, 127, 128, 156, 155
124, 128, 129, 157, 156
125, 129, 130, 158, 157
126, 130, 131, 159, 158
127, 131, 132, 160, 159
128, 132, 133, 161, 160
129, 133, 134, 162, 161
130, 134, 135, 163, 162
131, 135, 136, 164, 163
132, 136, 137, 165, 164
133, 137, 138, 166, 165
134, 140, 139, 167, 168
135, 139, 141, 169, 167
136, 141, 142, 170, 169
137, 142, 143, 171, 170
138, 143, 144, 172, 171
139, 144, 145, 173, 172
140, 145, 146, 174, 173
141, 146, 147, 175, 174
142, 147, 148, 176, 175
143, 148, 149, 177, 176
144, 149, 150, 178, 177
145, 150, 151, 179, 178
146, 151, 152, 180, 179
147, 152, 153, 181, 180
148, 153, 154, 182, 181
149, 154, 155, 183, 182
150, 155, 156, 184, 183
151, 156, 157, 185, 184
152, 157, 158, 186, 185
153, 158, 159, 187, 186
154, 159, 160, 188, 187
155, 160, 161, 189, 188
156, 161, 162, 190, 189
157, 162, 163, 191, 190
158, 163, 164, 192, 191
159, 164, 165, 193, 192
160, 165, 166, 194, 193
161, 168, 167, 195, 196
162, 167, 169, 197, 195
163, 169, 170, 198, 197
164, 170, 171, 199, 198
165, 171, 172, 200, 199
166, 172, 173, 201, 200
167, 173, 174, 202, 201
168, 174, 175, 203, 202
169, 175, 176, 204, 203
170, 176, 177, 205, 204
171, 177, 178, 206, 205
172, 178, 179, 207, 206
173, 179, 180, 208, 207
174, 180, 181, 209, 208
175, 181, 182, 210, 209
176, 182, 183, 211, 210
177, 183, 184, 212, 211
178, 184, 185, 213, 212
179, 185, 186, 214, 213
180, 186, 187, 215, 214
181, 187, 188, 216, 215
182, 188, 189, 217, 216
183, 189, 190, 218, 217
184, 190, 191, 219, 218
185, 191, 192, 220, 219
186, 192, 193, 221, 220
187, 193, 194, 222, 221
188, 196, 195, 223, 224
189, 195, 197, 225, 223
190, 197, 198, 226, 225
191, 198, 199, 227, 226
192, 199, 200, 228, 227
193, 200, 201, 229, 228
194, 201, 202, 230, 229
195, 202, 203, 231, 230
196, 203, 204, 232, 231
197, 204, 205, 233, 232
198, 205, 206, 234, 233
199, 206, 207, 235, 234
200, 207, 208, 236, 235
201, 208, 209, 237, 236
202, 209, 210, 238, 237
203, 210, 211, 239, 238
204, 211, 212, 240, 239
205, 212, 213, 241, 240
206, 213, 214, 242, 241
207, 214, 215, 243, 242
208, 215, 216, 244, 243
209, 216, 217, 245, 244
210, 217, 218, 246, 245
211, 218, 219, 247, 246
212, 219, 220, 248, 247
213, 220, 221, 249, 248
214, 221, 222, 250, 249
215, 224, 223, 251, 252
216, 223, 225, 253, 251
217, 225, 226, 254, 253
218, 226, 227, 255, 254
219, 227, 228, 256, 255
220, 228, 229, 257, 256
221, 229, 230, 258, 257
222, 230, 231, 259, 258
223, 231, 232, 260, 259
224, 232, 233, 261, 260
225, 233, 234, 262, 261
226, 234, 235, 263, 262
227, 235, 236, 264, 263
228, 236, 237, 265, 264
229, 237, 238, 266, 265
230, 238, 239, 267, 266
231, 239, 240, 268, 267
232, 240, 241, 269, 268
233, 241, 242, 270, 269
234, 242, 243, 271, 270
235, 243, 244, 272, 271
236, 244, 245, 273, 272
237, 245, 246, 274, 273
238, 246, 247, 275, 274
239, 247, 248, 276, 275
240, 248, 249, 277, 276
241, 249, 250, 278, 277
242, 252, 251, 279, 280
243, 251, 253, 281, 279
244, 253, 254, 282, 281
245, 254, 255, 283, 282
246, 255, 256, 284, 283
247, 256, 257, 285, 284
248, 257, 258, 286, 285
249, 258, 259, 287, 286
250, 259, 260, 288, 287
251, 260, 261, 289, 288
252, 261, 262, 290, 289
253, 262, 263, 291, 290
254, 263, 264, 292, 291
255, 264, 265, 293, 292
256, 265, 266, 294, 293
257, 266, 267, 295, 294
258, 267, 268, 296, 295
259, 268, 269, 297, 296
260, 269, 270, 298, 297
261, 270, 271, 299, 298
262, 271, 272, 300, 299
263, 272, 273, 301, 300
264, 273, 274, 302, 301
265, 274, 275, 303, 302
266, 275, 276, 304, 303
267, 276, 277, 305, 304
268, 277, 278, 306, 305
269, 280, 279, 307, 308
270, 279, 281, 309, 307
271, 281, 282, 310, 309
272, 282, 283, 311, 310
273, 283, 284, 312, 311
274, 284, 285, 313, 312
275, 285, 286, 314, 313
276, 286, 287, 315, 314
277, 287, 288, 316, 315
278, 288, 289, 317, 316
279, 289, 290, 318, 317
280, 290, 291, 319, 318
281, 291, 292, 320, 319
282, 292, 293, 321, 320
283, 293, 294, 322, 321
284, 294, 295, 323, 322
285, 295, 296, 324, 323
286, 296, 297, 325, 324
287, 297, 298, 326, 325
288, 298, 299, 327, 326
289, 299, 300, 328, 327
290, 300, 301, 329, 328
291, 301, 302, 330, 329
292, 302, 303, 331, 330
293, 303, 304, 332, 331
294, 304, 305, 333, 332
295, 305, 306, 334, 333
296, 306, 335, 336, 334
297, 308, 307, 337, 338
298, 307, 309, 339, 337
299, 309, 310, 340, 339
300, 310, 311, 341, 340
301, 311, 312, 342, 341
302, 312, 313, 343, 342
303, 313, 314, 344, 343
304, 314, 315, 345, 344
305, 315, 316, 346, 345
306, 316, 317, 347, 346
307, 317, 318, 348, 347
308, 318, 319, 349, 348
309, 319, 320, 350, 349
310, 320, 321, 351, 350
311, 321, 322, 352, 351
312, 322, 323, 353, 352
313, 323, 324, 354, 353
314, 324, 325, 355, 354
315, 325, 326, 356, 355
316, 326, 327, 357, 356
317, 327, 328, 358, 357
318, 328, 329, 359, 358
319, 329, 330, 360, 359
320, 330, 331, 361, 360
321, 331, 332, 362, 361
322, 332, 333, 363, 362
323, 333, 334, 364, 363
324, 334, 336, 365, 364
325, 338, 337, 366, 367
326, 337, 339, 368, 366
327, 339, 340, 369, 368
328, 340, 341, 370, 369
329, 341, 342, 371, 370
330, 342, 343, 372, 371
331, 343, 344, 373, 372
332, 344, 345, 374, 373
333, 345, 346, 375, 374
334, 346, 347, 376, 375
335, 347, 348, 377, 376
336, 348, 349, 378, 377
337, 349, 350, 379, 378
338, 350, 351, 380, 379
339, 351, 352, 381, 380
340, 352, 353, 382, 381
341, 353, 354, 383, 382
342, 354, 355, 384, 383
343, 355, 356, 385, 384
344, 356, 357, 386, 385
345, 357, 358, 387, 386
346, 358, 359, 388, 387
347, 359, 360, 389, 388
348, 360, 361, 390, 389
349, 361, 362, 391, 390
350, 362, 363, 392, 391
351, 363, 364, 393, 392
352, 364, 365, 394, 393
353, 367, 366, 395, 396
354, 366, 368, 397, 395
355, 368, 369, 398, 397
356, 369, 370, 399, 398
357, 370, 371, 400, 399
358, 371, 372, 401, 400
359, 372, 373, 402, 401
360, 373, 374, 403, 402
361, 374, 375, 404, 403
362, 375, 376, 405, 404
363, 376, 377, 406, 405
364, 377, 378, 407, 406
365, 378, 379, 408, 407
366, 379, 380, 409, 408
367, 380, 381, 410, 409
368, 381, 382, 411, 410
369, 382, 383, 412, 411
370, 383, 384, 413, 412
371, 384, 385, 414, 413
372, 385, 386, 415, 414
373, 386, 387, 416, 415
374, 387, 388, 417, 416
375, 388, 389, 418, 417
376, 389, 390, 419, 418
377, 390, 391, 420, 419
378, 391, 392, 421, 420
379, 392, 393, 422, 421
380, 393, 394, 423, 422
381, 396, 395, 424, 425
382, 395, 397, 426, 424
383, 397, 398, 427, 426
384, 398, 399, 428, 427
385, 399, 400, 429, 428
386, 400, 401, 430, 429
387, 401, 402, 431, 430
388, 402, 403, 432, 431
389, 403, 404, 433, 432
390, 404, 405, 434, 433
391, 405, 406, 435, 434
392, 406, 407, 436, 435
393, 407, 408, 437, 436
394, 408, 409, 438, 437
395, 409, 410, 439, 438
396, 410, 411, 440, 439
397, 411, 412, 441, 440
398, 412, 413, 442, 441
399, 413, 414, 443, 442
400, 414, 415, 444, 443
401, 415, 416, 445, 444
402, 416, 417, 446, 445
403, 417, 418, 447, 446
404, 418, 419, 448, 447
405, 419, 420, 449, 448
406, 420, 421, 450, 449
407, 421, 422, 451, 450
408, 422, 423, 452, 451
409, 425, 424, 453, 454
410, 424, 426, 455, 453
411, 426, 427, 456, 455
412, 427, 428, 457, 456
413, 428, 429, 458, 457
414, 429, 430, 459, 458
415, 430, 431, 460, 459
416, 431, 432, 461, 460
417, 432, 433, 462, 461
418, 433, 434, 463, 462
419, 434, 435, 464, 463
420, 435, 436, 465, 464
421, 436, 437, 466, 465
422, 437, 438, 467, 466
423, 438, 439, 468, 467
424, 439, 440, 469, 468
425, 440, 441, 470, 469
426, 441, 442, 471, 470
427, 442, 443, 472, 471
428, 443, 444, 473, 472
429, 444, 445, 474, 473
430, 445, 446, 475, 474
431, 446, 447, 476, 475
432, 447, 448, 477, 476
433, 448, 449, 478, 477
434, 449, 450, 479, 478
435, 450, 451, 480, 479
436, 451, 452, 481, 480
437, 454, 453, 482, 483
438, 453, 455, 484, 482
439, 455, 456, 485, 484
440, 456, 457, 486, 485
441, 457, 458, 487, 486
442, 458, 459, 488, 487
443, 459, 460, 489, 488
444, 460, 461, 490, 489
445, 461, 462, 491, 490
446, 462, 463, 492, 491
447, 463, 464, 493, 492
448, 464, 465, 494, 493
449, 465, 466, 495, 494
450, 466, 467, 496, 495
451, 467, 468, 497, 496
452, 468, 469, 498, 497
453, 469, 470, 499, 498
454, 470, 471, 500, 499
455, 471, 472, 501, 500
456, 472, 473, 502, 501
457, 473, 474, 503, 502
458, 474, 475, 504, 503
459, 475, 476, 505, 504
460, 476, 477, 506, 505
461, 477, 478, 507, 506
462, 478, 479, 508, 507
463, 479, 480, 509, 508
464, 480, 481, 510, 509
465, 483, 482, 511, 512
466, 482, 484, 513, 511
467, 484, 485, 514, 513
468, 485, 486, 515, 514
469, 486, 487, 516, 515
470, 487, 488, 517, 516
471, 488, 489, 518, 517
472, 489, 490, 519, 518
473, 490, 491, 520, 519
474, 491, 492, 521, 520
475, 492, 493, 522, 521
476, 493, 494, 523, 522
477, 494, 495, 524, 523
478, 495, 496, 525, 524
479, 496, 497, 526, 525
480, 497, 498, 527, 526
481, 498, 499, 528, 527
482, 499, 500, 529, 528
483, 500, 501, 530, 529
484, 501, 502, 531, 530
485, 502, 503, 532, 531
486, 503, 504, 533, 532
487, 504, 505, 534, 533
488, 505, 506, 535, 534
489, 506, 507, 536, 535
490, 507, 508, 537, 536
491, 508, 509, 538, 537
492, 509, 510, 539, 538
493, 512, 511, 540, 541
494, 511, 513, 542, 540
495, 513, 514, 543, 542
496, 514, 515, 544, 543
497, 515, 516, 545, 544
498, 516, 517, 546, 545
499, 517, 518, 547, 546
500, 518, 519, 548, 547
501, 519, 520, 549, 548
502, 520, 521, 550, 549
503, 521, 522, 551, 550
504, 522, 523, 552, 551
505, 523, 524, 553, 552
506, 524, 525, 554, 553
507, 525, 526, 555, 554
508, 526, 527, 556, 555
509, 527, 528, 557, 556
510, 528, 529, 558, 557
511, 529, 530, 559, 558
512, 530, 531, 560, 559
513, 531, 532, 561, 560
514, 532, 533, 562, 561
515, 533, 534, 563, 562
516, 534, 535, 564, 563
517, 535, 536, 565, 564
518, 536, 537, 566, 565
519, 537, 538, 567, 566
520, 538, 539, 568, 567
521, 541, 540, 569, 570
522, 540, 542, 571, 569
523, 542, 543, 572, 571
524, 543, 544, 573, 572
525, 544, 545, 574, 573
526, 545, 546, 575, 574
527, 546, 547, 576, 575
528, 547, 548, 577, 576
529, 548, 549, 578, 577
530, 549, 550, 579, 578
531, 550, 551, 580, 579
532, 551, 552, 581, 580
533, 552, 553, 582, 581
534, 553, 554, 583, 582
535, 554, 555, 584, 583
536, 555, 556, 585, 584
537, 556, 557, 586, 585
538, 557, 558, 587, 586
539, 558, 559, 588, 587
540, 559, 560, 589, 588
541, 560, 561, 590, 589
542, 561, 562, 591, 590
543, 562, 563, 592, 591
544, 563, 564, 593, 592
545, 564, 565, 594, 593
546, 565, 566, 595, 594
547, 566, 567, 596, 595
548, 567, 568, 597, 596
549, 570, 569, 598, 599
550, 569, 571, 600, 598
551, 571, 572, 601, 600
552, 572, 573, 602, 601
553, 573, 574, 603, 602
554, 574, 575, 604, 603
555, 575, 576, 605, 604
556, 576, 577, 606, 605
557, 577, 578, 607, 606
558, 578, 579, 608, 607
559, 579, 580, 609, 608
560, 580, 581, 610, 609
561, 581, 582, 611, 610
562, 582, 583, 612, 611
563, 583, 584, 613, 612
564, 584, 585, 614, 613
565, 585, 586, 615, 614
566, 586, 587, 616, 615
567, 587, 588, 617, 616
568, 588, 589, 618, 617
569, 589, 590, 619, 618
570, 590, 591, 620, 619
571, 591, 592, 621, 620
572, 592, 593, 622, 621
573, 593, 594, 623, 622
574, 594, 595, 624, 623
575, 595, 596, 625, 624
576, 596, 597, 626, 625
577, 627, 628, 629, 630
578, 628, 631, 632, 629
579, 631, 633, 634, 632
580, 633, 635, 636, 634
581, 635, 637, 638, 636
582, 637, 639, 640, 638
583, 599, 598, 641, 642
584, 598, 600, 643, 641
585, 600, 601, 644, 643
586, 601, 602, 645, 644
587, 602, 603, 646, 645
588, 603, 604, 647, 646
589, 604, 605, 648, 647
590, 605, 606, 649, 648
591, 606, 607, 650, 649
592, 607, 608, 651, 650
593, 608, 609, 652, 651
594, 609, 610, 653, 652
595, 610, 611, 654, 653
596, 611, 612, 655, 654
597, 612, 613, 656, 655
598, 613, 614, 657, 656
599, 614, 615, 658, 657
600, 615, 616, 659, 658
601, 616, 617, 660, 659
602, 617, 618, 661, 660
603, 618, 619, 662, 661
604, 619, 620, 663, 662
605, 620, 621, 664, 663
606, 621, 622, 665, 664
607, 622, 623, 666, 665
608, 623, 624, 667, 666
609, 624, 625, 668, 667
610, 625, 626, 669, 668
611, 670, 671, 672, 673
612, 671, 630, 674, 672
613, 630, 629, 675, 674
614, 629, 632, 676, 675
615, 632, 634, 677, 676
616, 634, 636, 678, 677
617, 636, 638, 679, 678
618, 638, 640, 680, 679
619, 642, 641, 681, 682
620, 641, 643, 683, 681
621, 643, 644, 684, 683
622, 644, 645, 685, 684
623, 645, 646, 686, 685
624, 646, 647, 687, 686
625, 647, 648, 688, 687
626, 648, 649, 689, 688
627, 649, 650, 690, 689
628, 650, 651, 691, 690
629, 651, 652, 692, 691
630, 652, 653, 693, 692
631, 653, 654, 694, 693
632, 654, 655, 695, 694
633, 655, 656, 696, 695
634, 656, 657, 697, 696
635, 657, 658, 698, 697
636, 658, 659, 699, 698
637, 659, 660, 700, 699
638, 660, 661, 701, 700
639, 661, 662, 702, 701
640, 662, 663, 703, 702
641, 663, 664, 704, 703
642, 664, 665, 705, 704
643, 665, 666, 706, 705
644, 666, 667, 707, 706
645, 667, 668, 708, 707
646, 668, 669, 709, 708
647, 669, 710, 711, 709
648, 712, 673, 713, 714
649, 673, 672, 715, 713
650, 672, 674, 716, 715
651, 674, 675, 717, 716
652, 675, 676, 718, 717
653, 676, 677, 719, 718
654, 677, 678, 720, 719
655, 678, 679, 721, 720
656, 679, 680, 722, 721
657, 682, 681, 723, 724
658, 681, 683, 725, 723
659, 683, 684, 726, 725
660, 684, 685, 727, 726
661, 685, 686, 728, 727
662, 686, 687, 729, 728
663, 687, 688, 730, 729
664, 688, 689, 731, 730
665, 689, 690, 732, 731
666, 690, 691, 733, 732
667, 691, 692, 734, 733
668, 692, 693, 735, 734
669, 693, 694, 736, 735
670, 694, 695, 737, 736
671, 695, 696, 738, 737
672, 696, 697, 739, 738
673, 697, 698, 740, 739
674, 698, 699, 741, 740
675, 699, 700, 742, 741
676, 700, 701, 743, 742
677, 701, 702, 744, 743
678, 702, 703, 745, 744
679, 703, 704, 746, 745
680, 704, 705, 747, 746
681, 705, 706, 748, 747
682, 706, 707, 749, 748
683, 707, 708, 750, 749
684, 708, 709, 751, 750
685, 709, 711, 752, 751
686, 753, 714, 754, 755
687, 714, 713, 756, 754
688, 713, 715, 757, 756
689, 715, 716, 758, 757
690, 716, 717, 759, 758
691, 717, 718, 760, 759
692, 718, 719, 761, 760
693, 719, 720, 762, 761
694, 720, 721, 763, 762
695, 721, 722, 764, 763
696, 724, 723, 765, 766
697, 723, 725, 767, 765
698, 725, 726, 768, 767
699, 726, 727, 769, 768
700, 727, 728, 770, 769
701, 728, 729, 771, 770
702, 729, 730, 772, 771
703, 730, 731, 773, 772
704, 731, 732, 774, 773
705, 732, 733, 775, 774
706, 733, 734, 776, 775
707, 734, 735, 777, 776
708, 735, 736, 778, 777
709, 736, 737, 779, 778
710, 737, 738, 780, 779
711, 738, 739, 781, 780
712, 739, 740, 782, 781
713, 740, 741, 783, 782
714, 741, 742, 784, 783
715, 742, 743, 785, 784
716, 743, 744, 786, 785
717, 744, 745, 787, 786
718, 745, 746, 788, 787
719, 746, 747, 789, 788
720, 747, 748, 790, 789
721, 748, 749, 791, 790
722, 749, 750, 792, 791
723, 750, 751, 793, 792
724, 751, 752, 794, 793
725, 795, 796, 797, 798
726, 796, 755, 799, 797
727, 755, 754, 800, 799
728, 754, 756, 801, 800
729, 756, 757, 802, 801
730, 757, 758, 803, 802
731, 758, 759, 804, 803
732, 759, 760, 805, 804
733, 760, 761, 806, 805
734, 761, 762, 807, 806
735, 762, 763, 808, 807
736, 763, 764, 809, 808
737, 766, 765, 810, 811
738, 765, 767, 812, 810
739, 767, 768, 813, 812
740, 768, 769, 814, 813
741, 769, 770, 815, 814
742, 770, 771, 816, 815
743, 771, 772, 817, 816
744, 772, 773, 818, 817
745, 773, 774, 819, 818
746, 774, 775, 820, 819
747, 775, 776, 821, 820
748, 776, 777, 822, 821
749, 777, 778, 823, 822
750, 778, 779, 824, 823
751, 779, 780, 825, 824
752, 780, 781, 826, 825
753, 781, 782, 827, 826
754, 782, 783, 828, 827
755, 783, 784, 829, 828
756, 784, 785, 830, 829
757, 785, 786, 831, 830
758, 786, 787, 832, 831
759, 787, 788, 833, 832
760, 788, 789, 834, 833
761, 789, 790, 835, 834
762, 790, 791, 836, 835
763, 791, 792, 837, 836
764, 792, 793, 838, 837
765, 793, 794, 839, 838
766, 840, 798, 841, 842
767, 798, 797, 843, 841
768, 797, 799, 844, 843
769, 799, 800, 845, 844
770, 800, 801, 846, 845
771, 801, 802, 847, 846
772, 802, 803, 848, 847
773, 803, 804, 849, 848
774, 804, 805, 850, 849
775, 805, 806, 851, 850
776, 806, 807, 852, 851
777, 807, 808, 853, 852
778, 808, 809, 854, 853
779, 811, 810, 855, 856
780, 810, 812, 857, 855
781, 812, 813, 858, 857
782, 813, 814, 859, 858
783, 814, 815, 860, 859
784, 815, 816, 861, 860
785, 816, 817, 862, 861
786, 817, 818, 863, 862
787, 818, 819, 864, 863
788, 819, 820, 865, 864
789, 820, 821, 866, 865
790, 821, 822, 867, 866
791, 822, 823, 868, 867
792, 823, 824, 869, 868
793, 824, 825, 870, 869
794, 825, 826, 871, 870
795, 826, 827, 872, 871
796, 827, 828, 873, 872
797, 828, 829, 874, 873
798, 829, 830, 875, 874
799, 830, 831, 876, 875
800, 831, 832, 877, 876
801, 832, 833, 878, 877
802, 833, 834, 879, 878
803, 834, 835, 880, 879
804, 835, 836, 881, 880
805, 836, 837, 882, 881
806, 837, 838, 883, 882
807, 838, 839, 884, 883
808, 885, 842, 886, 887
809, 842, 841, 888, 886
810, 841, 843, 889, 888
811, 843, 844, 890, 889
812, 844, 845, 891, 890
813, 845, 846, 892, 891
814, 846, 847, 893, 892
815, 847, 848, 894, 893
816, 848, 849, 895, 894
817, 849, 850, 896, 895
818, 850, 851, 897, 896
819, 851, 852, 898, 897
820, 852, 853, 899, 898
821, 853, 854, 900, 899
822, 856, 855, 901, 902
823, 855, 857, 903, 901
824, 857, 858, 904, 903
825, 858, 859, 905, 904
826, 859, 860, 906, 905
827, 860, 861, 907, 906
828, 861, 862, 908, 907
829, 862, 863, 909, 908
830, 863, 864, 910, 909
831, 864, 865, 911, 910
832, 865, 866, 912, 911
833, 866, 867, 913, 912
834, 867, 868, 914, 913
835, 868, 869, 915, 914
836, 869, 870, 916, 915
837, 870, 871, 917, 916
838, 871, 872, 918, 917
839, 872, 873, 919, 918
840, 873, 874, 920, 919
841, 874, 875, 921, 920
842, 875, 876, 922, 921
843, 876, 877, 923, 922
844, 877, 878, 924, 923
845, 878, 879, 925, 924
846, 879, 880, 926, 925
847, 880, 881, 927, 926
848, 881, 882, 928, 927
849, 882, 883, 929, 928
850, 883, 884, 930, 929
851, 884, 931, 932, 930
852, 931, 933, 934, 932
853, 933, 935, 936, 934
854, 935, 937, 938, 936
855, 937, 939, 940, 938
856, 939, 941, 942, 940
857, 941, 943, 944, 942
858, 943, 945, 946, 944
859, 945, 947, 948, 946
860, 947, 949, 950, 948
861, 949, 951, 952, 950
862, 951, 953, 954, 952
863, 953, 955, 956, 954
864, 955, 957, 958, 956
865, 957, 959, 960, 958
866, 959, 961, 962, 960
867, 961, 963, 964, 962
868, 963, 965, 966, 964
869, 965, 967, 968, 966
870, 967, 969, 970, 968
871, 969, 971, 972, 970
872, 971, 973, 974, 972
873, 973, 975, 976, 974
874, 975, 977, 978, 976
875, 977, 979, 980, 978
876, 979, 981, 982, 980
877, 981, 983, 984, 982
878, 983, 985, 986, 984
879, 985, 987, 988, 986
880, 987, 887, 989, 988
881, 887, 886, 990, 989
882, 886, 888, 991, 990
883, 888, 889, 992, 991
884, 889, 890, 993, 992
885, 890, 891, 994, 993
886, 891, 892, 995, 994
887, 892, 893, 996, 995
888, 893, 894, 997, 996
889, 894, 895, 998, 997
890, 895, 896, 999, 998
891, 896, 897, 1000, 999
892, 897, 898, 1001, 1000
893, 898, 899, 1002, 1001
894, 899, 900, 1003, 1002
895, 902, 901, 1004, 1005
896, 901, 903, 1006, 1004
897, 903, 904, 1007, 1006
898, 904, 905, 1008, 1007
899, 905, 906, 1009, 1008
900, 906, 907, 1010, 1009
901, 907, 908, 1011, 1010
902, 908, 909, 1012, 1011
903, 909, 910, 1013, 1012
904, 910, 911, 1014, 1013
905, 911, 912, 1015, 1014
906, 912, 913, 1016, 1015
907, 913, 914, 1017, 1016
908, 914, 915, 1018, 1017
909, 915, 916, 1019, 1018
910, 916, 917, 1020, 1019
911, 917, 918, 1021, 1020
912, 918, 919, 1022, 1021
913, 919, 920, 1023, 1022
914, 920, 921, 1024, 1023
915, 921, 922, 1025, 1024
916, 922, 923, 1026, 1025
917, 923, 924, 1027, 1026
918, 924, 925, 1028, 1027
919, 925, 926, 1029, 1028
920, 926, 927, 1030, 1029
921, 927, 928, 1031, 1030
922, 928, 929, 1032, 1031
923, 929, 930, 1033, 1032
924, 930, 932, 1034, 1033
925, 932, 934, 1035, 1034
926, 934, 936, 1036, 1035
927, 936, 938, 1037, 1036
928, 938, 940, 1038, 1037
929, 940, 942, 1039, 1038
930, 942, 944, 1040, 1039
931, 944, 946, 1041, 1040
932, 946, 948, 1042, 1041
933, 948, 950, 1043, 1042
934, 950, 952, 1044, 1043
935, 952, 954, 1045, 1044
936, 954, 956, 1046, 1045
937, 956, 958, 1047, 1046
938, 958, 960, 1048, 1047
939, 960, 962, 1049, 1048
940, 962, 964, 1050, 1049
941, 964, 966, 1051, 1050
942, 966, 968, 1052, 1051
943, 968, 970, 1053, 1052
944, 970, 972, 1054, 1053
945, 972, 974, 1055, 1054
946, 974, 976, 1056, 1055
947, 976, 978, 1057, 1056
948, 978, 980, 1058, 1057
949, 980, 982, 1059, 1058
950, 982, 984, 1060, 1059
951, 984, 986, 1061, 1060
952, 986, 988, 1062, 1061
953, 988, 989, 1063, 1062
954, 989, 990, 1064, 1063
955, 990, 991, 1065, 1064
956, 991, 992, 1066, 1065
957, 992, 993, 1067, 1066
958, 993, 994, 1068, 1067
959, 994, 995, 1069, 1068
960, 995, 996, 1070, 1069
961, 996, 997, 1071, 1070
962, 997, 998, 1072, 1071
963, 998, 999, 1073, 1072
964, 999, 1000, 1074, 1073
965, 1000, 1001, 1075, 1074
966, 1001, 1002, 1076, 1075
967, 1002, 1003, 1077, 1076
968, 1005, 1004, 1078, 1079
969, 1004, 1006, 1080, 1078
970, 1006, 1007, 1081, 1080
971, 1007, 1008, 1082, 1081
972, 1008, 1009, 1083, 1082
973, 1009, 1010, 1084, 1083
974, 1010, 1011, 1085, 1084
975, 1011, 1012, 1086, 1085
976, 1012, 1013, 1087, 1086
977, 1013, 1014, 1088, 1087
978, 1014, 1015, 1089, 1088
979, 1015, 1016, 1090, 1089
980, 1016, 1017, 1091, 1090
981, 1017, 1018, 1092, 1091
982, 1018, 1019, 1093, 1092
983, 1019, 1020, 1094, 1093
984, 1020, 1021, 1095, 1094
985, 1021, 1022, 1096, 1095
986, 1022, 1023, 1097, 1096
987, 1023, 1024, 1098, 1097
988, 1024, 1025, 1099, 1098
989, 1025, 1026, 1100, 1099
990, 1026, 1027, 1101, 1100
991, 1027, 1028, 1102, 1101
992, 1028, 1029, 1103, 1102
993, 1029, 1030, 1104, 1103
994, 1030, 1031, 1105, 1104
995, 1031, 1032, 1106, 1105
996, 1032, 1033, 1107, 1106
997, 1033, 1034, 1108, 1107
998, 1034, 1035, 1109, 1108
999, 1035, 1036, 1110, 1109
1000, 1036, 1037, 1111, 1110
1001, 1037, 1038, 1112, 1111
1002, 1038, 1039, 1113, 1112
1003, 1039, 1040, 1114, 1113
1004, 1040, 1041, 1115, 1114
1005, 1041, 1042, 1116, 1115
1006, 1042, 1043, 1117, 1116
1007, 1043, 1044, 1118, 1117
1008, 1044, 1045, 1119, 1118
1009, 1045, 1046, 1120, 1119
1010, 1046, 1047, 1121, 1120
1011, 1047, 1048, 1122, 1121
1012, 1048, 1049, 1123, 1122
1013, 1049, 1050, 1124, 1123
1014, 1050, 1051, 1125, 1124
1015, 1051, 1052, 1126, 1125
1016, 1052, 1053, 1127, 1126
1017, 1053, 1054, 1128, 1127
1018, 1054, 1055, 1129, 1128
1019, 1055, 1056, 1130, 1129
1020, 1056, 1057, 1131, 1130
1021, 1057, 1058, 1132, 1131
1022, 1058, 1059, 1133, 1132
1023, 1059, 1060, 1134, 1133
1024, 1060, 1061, 1135, 1134
1025, 1061, 1062, 1136, 1135
1026, 1062, 1063, 1137, 1136
1027, 1063, 1064, 1138, 1137
1028, 1064, 1065, 1139, 1138
1029, 1065, 1066, 1140, 1139
1030, 1066, 1067, 1141, 1140
1031, 1067, 1068, 1142, 1141
1032, 1068, 1069, 1143, 1142
1033, 1069, 1070, 1144, 1143
1034, 1070, 1071, 1145, 1144
1035, 1071, 1072, 1146, 1145
1036, 1072, 1073, 1147, 1146
1037, 1073, 1074, 1148, 1147
1038, 1074, 1075, 1149, 1148
1039, 1075, 1076, 1150, 1149
1040, 1076, 1077, 1151, 1150
1041, 1079, 1078, 1152, 1153
1042, 1078, 1080, 1154, 1152
1043, 1080, 1081, 1155, 1154
1044, 1081, 1082, 1156, 1155
1045, 1082, 1083, 1157, 1156
1046, 1083, 1084, 1158, 1157
1047, 1084, 1085, 1159, 1158
1048, 1085, 1086, 1160, 1159
1049, 1086, 1087, 1161, 1160
1050, 1087, 1088, 1162, 1161
1051, 1088, 1089, 1163, 1162
1052, 1089, 1090, 1164, 1163
1053, 1090, 1091, 1165, 1164
1054, 1091, 1092, 1166, 1165
1055, 1092, 1093, 1167, 1166
1056, 1093, 1094, 1168, 1167
1057, 1094, 1095, 1169, 1168
1058, 1095, 1096, 1170, 1169
1059, 1096, 1097, 1171, 1170
1060, 1097, 1098, 1172, 1171
1061, 1098, 1099, 1173, 1172
1062, 1099, 1100, 1174, 1173
1063, 1100, 1101, 1175, 1174
1064, 1101, 1102, 1176, 1175
1065, 1102, 1103, 1177, 1176
1066, 1103, 1104, 1178, 1177
1067, 1104, 1105, 1179, 1178
1068, 1105, 1106, 1180, 1179
1069, 1106, 1107, 1181, 1180
1070, 1107, 1108, 1182, 1181
1071, 1108, 1109, 1183, 1182
1072, 1109, 1110, 1184, 1183
1073, 1110, 1111, 1185, 1184
1074, 1111, 1112, 1186, 1185
1075, 1112, 1113, 1187, 1186
1076, 1113, 1114, 1188, 1187
1077, 1114, 1115, 1189, 1188
1078, 1115, 1116, 1190, 1189
1079, 1116, 1117, 1191, 1190
1080, 1117, 1118, 1192, 1191
1081, 1118, 1119, 1193, 1192
1082, 1119, 1120, 1194, 1193
1083, 1120, 1121, 1195, 1194
1084, 1121, 1122, 1196, 1195
1085, 1122, 1123, 1197, 1196
1086, 1123, 1124, 1198, 1197
1087, 1124, 1125, 1199, 1198
1088, 1125, 1126, 1200, 1199
1089, 1126, 1127, 1201, 1200
1090, 1127, 1128, 1202, 1201
1091, 1128, 1129, 1203, 1202
1092, 1129, 1130, 1204, 1203
1093, 1130, 1131, 1205, 1204
1094, 1131, 1132, 1206, 1205
1095, 1132, 1133, 1207, 1206
1096, 1133, 1134, 1208, 1207
1097, 1134, 1135, 1209, 1208
1098, 1135, 1136, 1210, 1209
1099, 1136, 1137, 1211, 1210
1100, 1137, 1138, 1212, 1211
1101, 1138, 1139, 1213, 1212
1102, 1139, 1140, 1214, 1213
1103, 1140, 1141, 1215, 1214
1104, 1141, 1142, 1216, 1215
1105, 1142, 1143, 1217, 1216
1106, 1143, 1144, 1218, 1217
1107, 1144, 1145, 1219, 1218
1108, 1145, 1146, 1220, 1219
1109, 1146, 1147, 1221, 1220
1110, 1147, 1148, 1222, 1221
1111, 1148, 1149, 1223, 1222
1112, 1149, 1150, 1224, 1223
1113, 1150, 1151, 1225, 1224
1114, 1153, 1152, 1226, 1227
1115, 1152, 1154, 1228, 1226
1116, 1154, 1155, 1229, 1228
1117, 1155, 1156, 1230, 1229
1118, 1156, 1157, 1231, 1230
1119, 1157, 1158, 1232, 1231
1120, 1158, 1159, 1233, 1232
1121, 1159, 1160, 1234, 1233
1122, 1160, 1161, 1235, 1234
1123, 1161, 1162, 1236, 1235
1124, 1162, 1163, 1237, 1236
1125, 1163, 1164, 1238, 1237
1126, 1164, 1165, 1239, 1238
1127, 1165, 1166, 1240, 1239
1128, 1166, 1167, 1241, 1240
1129, 1167, 1168, 1242, 1241
1130, 1168, 1169, 1243, 1242
1131, 1169, 1170, 1244, 1243
1132, 1170, 1171, 1245, 1244
1133, 1171, 1172, 1246, 1245
1134, 1172, 1173, 1247, 1246
1135, 1173, 1174, 1248, 1247
1136, 1174, 1175, 1249, 1248
1137, 1175, 1176, 1250, 1249
1138, 1176, 1177, 1251, 1250
1139, 1177, 1178, 1252, 1251
1140, 1178, 1179, 1253, 1252
1141, 1179, 1180, 1254, 1253
1142, 1180, 1181, 1255, 1254
1143, 1181, 1182, 1256, 1255
1144, 1182, 1183, 1257, 1256
1145, 1183, 1184, 1258, 1257
1146, 1184, 1185, 1259, 1258
1147, 1185, 1186, 1260, 1259
1148, 1186, 1187, 1261, 1260
1149, 1187, 1188, 1262, 1261
1150, 1188, 1189, 1263, 1262
1151, 1189, 1190, 1264, 1263
1152, 1190, 1191, 1265, 1264
1153, 1191, 1192, 1266, 1265
1154, 1192, 1193, 1267, 1266
1155, 1193, 1194, 1268, 1267
1156, 1194, 1195, 1269, 1268
1157, 1195, 1196, 1270, 1269
1158, 1196, 1197, 1271, 1270
1159, 1197, 1198, 1272, 1271
1160, 1198, 1199, 1273, 1272
1161, 1199, 1200, 1274, 1273
1162, 1200, 1201, 1275, 1274
1163, 1201, 1202, 1276, 1275
1164, 1202, 1203, 1277, 1276
1165, 1203, 1204, 1278, 1277
1166, 1204, 1205, 1279, 1278
1167, 1205, 1206, 1280, 1279
1168, 1206, 1207, 1281, 1280
1169, 1207, 1208, 1282, 1281
1170, 1208, 1209, 1283, 1282
1171, 1209, 1210, 1284, 1283
1172, 1210, 1211, 1285, 1284
1173, 1211, 1212, 1286, 1285
1174, 1212, 1213, 1287, 1286
1175, 1213, 1214, 1288, 1287
1176, 1214, 1215, 1289, 1288
1177, 1215, 1216, 1290, 1289
1178, 1216, 1217, 1291, 1290
1179, 1217, 1218, 1292, 1291
1180, 1218, 1219, 1293, 1292
1181, 1219, 1220, 1294, 1293
1182, 1220, 1221, 1295, 1294
1183, 1221, 1222, 1296, 1295
1184, 1222, 1223, 1297, 1296
1185, 1223, 1224, 1298, 1297
1186, 1224, 1225, 1299, 1298
1187, 1227, 1226, 1300, 1301
1188, 1226, 1228, 1302, 1300
1189, 1228, 1229, 1303, 1302
1190, 1229, 1230, 1304, 1303
1191, 1230, 1231, 1305, 1304
1192, 1231, 1232, 1306, 1305
1193, 1232, 1233, 1307, 1306
1194, 1233, 1234, 1308, 1307
1195, 1234, 1235, 1309, 1308
1196, 1235, 1236, 1310, 1309
1197, 1236, 1237, 1311, 1310
1198, 1237, 1238, 1312, 1311
1199, 1238, 1239, 1313, 1312
1200, 1239, 1240, 1314, 1313
1201, 1240, 1241, 1315, 1314
1202, 1241, 1242, 1316, 1315
1203, 1242, 1243, 1317, 1316
1204, 1243, 1244, 1318, 1317
1205, 1244, 1245, 1319, 1318
1206, 1245, 1246, 1320, 1319
1207, 1246, 1247, 1321, 1320
1208, 1247, 1248, 1322, 1321
1209, 1248, 1249, 1323, 1322
1210, 1249, 1250, 1324, 1323
1211, 1250, 1251, 1325, 1324
1212, 1251, 1252, 1326, 1325
1213, 1252, 1253, 1327, 1326
1214, 1253, 1254, 1328, 1327
1215, 1254, 1255, 1329, 1328
1216, 1255, 1256, 1330, 1329
1217, 1256, 1257, 1331, 1330
1218, 1257, 1258, 1332, 1331
1219, 1258, 1259, 1333, 1332
1220, 1259, 1260, 1334, 1333
1221, 1260, 1261, 1335, 1334
1222, 1261, 1262, 1336, 1335
1223, 1262, 1263, 1337, 1336
1224, 1263, 1264, 1338, 1337
1225, 1264, 1265, 1339, 1338
1226, 1265, 1266, 1340, 1339
1227, 1266, 1267, 1341, 1340
1228, 1267, 1268, 1342, 1341
1229, 1268, 1269, 1343, 1342
1230, 1269, 1270, 1344, 1343
1231, 1270, 1271, 1345, 1344
1232, 1271, 1272, 1346, 1345
1233, 1272, 1273, 1347, 1346
1234, 1273, 1274, 1348, 1347
1235, 1274, 1275, 1349, 1348
1236, 1275, 1276, 1350, 1349
1237, 1276, 1277, 1351, 1350
1238, 1277, 1278, 1352, 1351
1239, 1278, 1279, 1353, 1352
1240, 1279, 1280, 1354, 1353
1241, 1280, 1281, 1355, 1354
1242, 1281, 1282, 1356, 1355
1243, 1282, 1283, 1357, 1356
1244, 1283, 1284, 1358, 1357
1245, 1284, 1285, 1359, 1358
1246, 1285, 1286, 1360, 1359
1247, 1286, 1287, 1361, 1360
1248, 1287, 1288, 1362, 1361
1249, 1288, 1289, 1363, 1362
1250, 1289, 1290, 1364, 1363
1251, 1290, 1291, 1365, 1364
1252, 1291, 1292, 1366, 1365
1253, 1292, 1293, 1367, 1366
1254, 1293, 1294, 1368, 1367
1255, 1294, 1295, 1369, 1368
1256, 1295, 1296, 1370, 1369
1257, 1296, 1297, 1371, 1370
1258, 1297, 1298, 1372, 1371
1259, 1298, 1299, 1373, 1372
1260, 1301, 1300, 1374, 1375
1261, 1300, 1302, 1376, 1374
1262, 1302, 1303, 1377, 1376
1263, 1303, 1304, 1378, 1377
1264, 1304, 1305, 1379, 1378
1265, 1305, 1306, 1380, 1379
1266, 1306, 1307, 1381, 1380
1267, 1307, 1308, 1382, 1381
1268, 1308, 1309, 1383, 1382
1269, 1309, 1310, 1384, 1383
1270, 1310, 1311, 1385, 1384
1271, 1311, 1312, 1386, 1385
1272, 1312, 1313, 1387, 1386
1273, 1313, 1314, 1388, 1387
1274, 1314, 1315, 1389, 1388
1275, 1315, 1316, 1390, 1389
1276, 1316, 1317, 1391, 1390
1277, 1317, 1318, 1392, 1391
1278, 1318, 1319, 1393, 1392
1279, 1319, 1320, 1394, 1393
1280, 1320, 1321, 1395, 1394
1281, 1321, 1322, 1396, 1395
1282, 1322, 1323, 1397, 1396
1283, 1323, 1324, 1398, 1397
1284, 1324, 1325, 1399, 1398
1285, 1325, 1326, 1400, 1399
1286, 1326, 1327, 1401, 1400
1287, 1327, 1328, 1402, 1401
1288, 1328, 1329, 1403, 1402
1289, 1329, 1330, 1404, 1403
1290, 1330, 1331, 1405, 1404
1291, 1331, 1332, 1406, 1405
1292, 1332, 1333, 1407, 1406
1293, 1333, 1334, 1408, 1407
1294, 1334, 1335, 1409, 1408
1295, 1335, 1336, 1410, 1409
1296, 1336, 1337, 1411, 1410
1297, 1337, 1338, 1412, 1411
1298, 1338, 1339, 1413, 1412
1299, 1339, 1340, 1414, 1413
1300, 1340, 1341, 1415, 1414
1301, 1341, 1342, 1416, 1415
1302, 1342, 1343, 1417, 1416
1303, 1343, 1344, 1418, 1417
1304, 1344, 1345, 1419, 1418
1305, 1345, 1346, 1420, 1419
1306, 1346, 1347, 1421, 1420
1307, 1347, 1348, 1422, 1421
1308, 1348, 1349, 1423, 1422
1309, 1349, 1350, 1424, 1423
1310, 1350, 1351, 1425, 1424
1311, 1351, 1352, 1426, 1425
1312, 1352, 1353, 1427, 1426
1313, 1353, 1354, 1428, 1427
1314, 1354, 1355, 1429, 1428
1315, 1355, 1356, 1430, 1429
1316, 1356, 1357, 1431, 1430
1317, 1357, 1358, 1432, 1431
1318, 1358, 1359, 1433, 1432
1319, 1359, 1360, 1434, 1433
1320, 1360, 1361, 1435, 1434
1321, 1361, 1362, 1436, 1435
1322, 1362, 1363, 1437, 1436
1323, 1363, 1364, 1438, 1437
1324, 1364, 1365, 1439, 1438
1325, 1365, 1366, 1440, 1439
1326, 1366, 1367, 1441, 1440
1327, 1367, 1368, 1442, 1441
1328, 1368, 1369, 1443, 1442
1329, 1369, 1370, 1444, 1443
1330, 1370, 1371, 1445, 1444
1331, 1371, 1372, 1446, 1445
1332, 1372, 1373, 1447, 1446
1333, 1375, 1374, 1448, 1449
1334, 1374, 1376, 1450, 1448
1335, 1376, 1377, 1451, 1450
1336, 1377, 1378, 1452, 1451
1337, 1378, 1379, 1453, 1452
1338, 1379, 1380, 1454, 1453
1339, 1380, 1381, 1455, 1454
1340, 1381, 1382, 1456, 1455
1341, 1382, 1383, 1457, 1456
1342, 1383, 1384, 1458, 1457
1343, 1384, 1385, 1459, 1458
1344, 1385, 1386, 1460, 1459
1345, 1386, 1387, 1461, 1460
1346, 1387, 1388, 1462, 1461
1347, 1388, 1389, 1463, 1462
1348, 1389, 1390, 1464, 1463
1349, 1390, 1391, 1465, 1464
1350, 1391, 1392, 1466, 1465
1351, 1392, 1393, 1467, 1466
1352, 1393, 1394, 1468, 1467
1353, 1394, 1395, 1469, 1468
1354, 1395, 1396, 1470, 1469
1355, 1396, 1397, 1471, 1470
1356, 1397, 1398, 1472, 1471
1357, 1398, 1399, 1473, 1472
1358, 1399, 1400, 1474, 1473
1359, 1400, 1401, 1475, 1474
1360, 1401, 1402, 1476, 1475
1361, 1402, 1403, 1477, 1476
1362, 1403, 1404, 1478, 1477
1363, 1404, 1405, 1479, 1478
1364, 1405, 1406, 1480, 1479
1365, 1406, 1407, 1481, 1480
1366, 1407, 1408, 1482, 1481
1367, 1408, 1409, 1483, 1482
1368, 1409, 1410, 1484, 1483
1369, 1410, 1411, 1485, 1484
1370, 1411, 1412, 1486, 1485
1371, 1412, 1413, 1487, 1486
1372, 1413, 1414, 1488, 1487
1373, 1414, 1415, 1489, 1488
1374, 1415, 1416, 1490, 1489
1375, 1416, 1417, 1491, 1490
1376, 1417, 1418, 1492, 1491
1377, 1418, 1419, 1493, 1492
1378, 1419, 1420, 1494, 1493
1379, 1420, 1421, 1495, 1494
1380, 1421, 1422, 1496, 1495
1381, 1422, 1423, 1497, 1496
1382, 1423, 1424, 1498, 1497
1383, 1424, 1425, 1499, 1498
1384, 1425, 1426, 1500, 1499
1385, 1426, 1427, 1501, 1500
1386, 1427, 1428, 1502, 1501
1387, 1428, 1429, 1503, 1502
1388, 1429, 1430, 1504, 1503
1389, 1430, 1431, 1505, 1504
1390, 1431, 1432, 1506, 1505
1391, 1432, 1433, 1507, 1506
1392, 1433, 1434, 1508, 1507
1393, 1434, 1435, 1509, 1508
1394, 1435, 1436, 1510, 1509
1395, 1436, 1437, 1511, 1510
1396, 1437, 1438, 1512, 1511
1397, 1438, 1439, 1513, 1512
1398, 1439, 1440, 1514, 1513
1399, 1440, 1441, 1515, 1514
1400, 1441, 1442, 1516, 1515
1401, 1442, 1443, 1517, 1516
1402, 1443, 1444, 1518, 1517
1403, 1444, 1445, 1519, 1518
1404, 1445, 1446, 1520, 1519
1405, 1446, 1447, 1521, 1520
1406, 1449, 1448, 1522, 1523
1407, 1448, 1450, 1524, 1522
1408, 1450, 1451, 1525, 1524
1409, 1451, 1452, 1526, 1525
1410, 1452, 1453, 1527, 1526
1411, 1453, 1454, 1528, 1527
1412, 1454, 1455, 1529, 1528
1413, 1455, 1456, 1530, 1529
1414, 1456, 1457, 1531, 1530
1415, 1457, 1458, 1532, 1531
1416, 1458, 1459, 1533, 1532
1417, 1459, 1460, 1534, 1533
1418, 1460, 1461, 1535, 1534
1419, 1461, 1462, 1536, 1535
1420, 1462, 1463, 1537, 1536
1421, 1463, 1464, 1538, 1537
1422, 1464, 1465, 1539, 1538
1423, 1465, 1466, 1540, 1539
1424, 1466, 1467, 1541, 1540
1425, 1467, 1468, 1542, 1541
1426, 1468, 1469, 1543, 1542
1427, 1469, 1470, 1544, 1543
1428, 1470, 1471, 1545, 1544
1429, 1471, 1472, 1546, 1545
1430, 1472, 1473, 1547, 1546
1431, 1473, 1474, 1548, 1547
1432, 1474, 1475, 1549, 1548
1433, 1475, 1476, 1550, 1549
1434, 1476, 1477, 1551, 1550
1435, 1477, 1478, 1552, 1551
1436, 1478, 1479, 1553, 1552
1437, 1479, 1480, 1554, 1553
1438, 1480, 1481, 1555, 1554
1439, 1481, 1482, 1556, 1555
1440, 1482, 1483, 1557, 1556
1441, 1483, 1484, 1558, 1557
1442, 1484, 1485, 1559, 1558
1443, 1485, 1486, 1560, 1559
1444, 1486, 1487, 1561, 1560
1445, 1487, 1488, 1562, 1561
1446, 1488, 1489, 1563, 1562
1447, 1489, 1490, 1564, 1563
1448, 1490, 1491, 1565, 1564
1449, 1491, 1492, 1566, 1565
1450, 1492, 1493, 1567, 1566
1451, 1493, 1494, 1568, 1567
1452, 1494, 1495, 1569, 1568
1453, 1495, 1496, 1570, 1569
1454, 1496, 1497, 1571, 1570
1455, 1497, 1498, 1572, 1571
1456, 1498, 1499, 1573, 1572
1457, 1499, 1500, 1574, 1573
1458, 1500, 1501, 1575, 1574
1459, 1501, 1502, 1576, 1575
1460, 1502, 1503, 1577, 1576
1461, 1503, 1504, 1578, 1577
1462, 1504, 1505, 1579, 1578
1463, 1505, 1506, 1580, 1579
1464, 1506, 1507, 1581, 1580
1465, 1507, 1508, 1582, 1581
1466, 1508, 1509, 1583, 1582
1467, 1509, 1510, 1584, 1583
1468, 1510, 1511, 1585, 1584
1469, 1511, 1512, 1586, 1585
1470, 1512, 1513, 1587, 1586
1471, 1513, 1514, 1588, 1587
1472, 1514, 1515, 1589, 1588
1473, 1515, 1516, 1590, 1589
1474, 1516, 1517, 1591, 1590
1475, 1517, 1518, 1592, 1591
1476, 1518, 1519, 1593, 1592
1477, 1519, 1520, 1594, 1593
1478, 1520, 1521, 1595, 1594
1479, 1523, 1522, 1596, 1597
1480, 1522, 1524, 1598, 1596
1481, 1524, 1525, 1599, 1598
1482, 1525, 1526, 1600, 1599
1483, 1526, 1527, 1601, 1600
1484, 1527, 1528, 1602, 1601
1485, 1528, 1529, 1603, 1602
1486, 1529, 1530, 1604, 1603
1487, 1530, 1531, 1605, 1604
1488, 1531, 1532, 1606, 1605
1489, 1532, 1533, 1607, 1606
1490, 1533, 1534, 1608, 1607
1491, 1534, 1535, 1609, 1608
1492, 1535, 1536, 1610, 1609
1493, 1536, 1537, 1611, 1610
1494, 1537, 1538, 1612, 1611
1495, 1538, 1539, 1613, 1612
1496, 1539, 1540, 1614, 1613
1497, 1540, 1541, 1615, 1614
1498, 1541, 1542, 1616, 1615
1499, 1542, 1543, 1617, 1616
1500, 1543, 1544, 1618, 1617
1501, 1544, 1545, 1619, 1618
1502, 1545, 1546, 1620, 1619
1503, 1546, 1547, 1621, 1620
1504, 1547, 1548, 1622, 1621
1505, 1548, 1549, 1623, 1622
1506, 1549, 1550, 1624, 1623
1507, 1550, 1551, 1625, 1624
1508, 1551, 1552, 1626, 1625
1509, 1552, 1553, 1627, 1626
1510, 1553, 1554, 1628, 1627
1511, 1554, 1555, 1629, 1628
1512, 1555, 1556, 1630, 1629
1513, 1556, 1557, 1631, 1630
1514, 1557, 1558, 1632, 1631
1515, 1558, 1559, 1633, 1632
1516, 1559, 1560, 1634, 1633
1517, 1560, 1561, 1635, 1634
1518, 1561, 1562, 1636, 1635
1519, 1562, 1563, 1637, 1636
1520, 1563, 1564, 1638, 1637
1521, 1564, 1565, 1639, 1638
1522, 1565, 1566, 1640, 1639
1523, 1566, 1567, 1641, 1640
1524, 1567, 1568, 1642, 1641
1525, 1568, 1569, 1643, 1642
1526, 1569, 1570, 1644, 1643
1527, 1570, 1571, 1645, 1644
1528, 1571, 1572, 1646, 1645
1529, 1572, 1573, 1647, 1646
1530, 1573, 1574, 1648, 1647
1531, 1574, 1575, 1649, 1648
1532, 1575, 1576, 1650, 1649
1533, 1576, 1577, 1651, 1650
1534, 1577, 1578, 1652, 1651
1535, 1578, 1579, 1653, 1652
1536, 1579, 1580, 1654, 1653
1537, 1580, 1581, 1655, 1654
1538, 1581, 1582, 1656, 1655
1539, 1582, 1583, 1657, 1656
1540, 1583, 1584, 1658, 1657
1541, 1584, 1585, 1659, 1658
1542, 1585, 1586, 1660, 1659
1543, 1586, 1587, 1661, 1660
1544, 1587, 1588, 1662, 1661
1545, 1588, 1589, 1663, 1662
1546, 1589, 1590, 1664, 1663
1547, 1590, 1591, 1665, 1664
1548, 1591, 1592, 1666, 1665
1549, 1592, 1593, 1667, 1666
1550, 1593, 1594, 1668, 1667
1551, 1594, 1595, 1669, 1668
1552, 1597, 1596, 1670, 1671
1553, 1596, 1598, 1672, 1670
1554, 1598, 1599, 1673, 1672
1555, 1599, 1600, 1674, 1673
1556, 1600, 1601, 1675, 1674
1557, 1601, 1602, 1676, 1675
1558, 1602, 1603, 1677, 1676
1559, 1603, 1604, 1678, 1677
1560, 1604, 1605, 1679, 1678
1561, 1605, 1606, 1680, 1679
1562, 1606, 1607, 1681, 1680
1563, 1607, 1608, 1682, 1681
1564, 1608, 1609, 1683, 1682
1565, 1609, 1610, 1684, 1683
1566, 1610, 1611, 1685, 1684
1567, 1611, 1612, 1686, 1685
1568, 1612, 1613, 1687, 1686
1569, 1613, 1614, 1688, 1687
1570, 1614, 1615, 1689, 1688
1571, 1615, 1616, 1690, 1689
1572, 1616, 1617, 1691, 1690
1573, 1617, 1618, 1692, 1691
1574, 1618, 1619, 1693, 1692
1575, 1619, 1620, 1694, 1693
1576, 1620, 1621, 1695, 1694
1577, 1621, 1622, 1696, 1695
1578, 1622, 1623, 1697, 1696
1579, 1623, 1624, 1698, 1697
1580, 1624, 1625, 1699, 1698
1581, 1625, 1626, 1700, 1699
1582, 1626, 1627, 1701, 1700
1583, 1627, 1628, 1702, 1701
1584, 1628, 1629, 1703, 1702
1585, 1629, 1630, 1704, 1703
1586, 1630, 1631, 1705, 1704
1587, 1631, 1632, 1706, 1705
1588, 1632, 1633, 1707, 1706
1589, 1633, 1634, 1708, 1707
1590, 1634, 1635, 1709, 1708
1591, 1635, 1636, 1710, 1709
1592, 1636, 1637, 1711, 1710
1593, 1637, 1638, 1712, 1711
1594, 1638, 1639, 1713, 1712
1595, 1639, 1640, 1714, 1713
1596, 1640, 1641, 1715, 1714
1597, 1641, 1642, 1716, 1715
1598, 1642, 1643, 1717, 1716
1599, 1643, 1644, 1718, 1717
1600, 1644, 1645, 1719, 1718
1601, 1645, 1646, 1720, 1719
1602, 1646, 1647, 1721, 1720
1603, 1647, 1648, 1722, 1721
1604, 1648, 1649, 1723, 1722
1605, 1649, 1650, 1724, 1723
1606, 1650, 1651, 1725, 1724
1607, 1651, 1652, 1726, 1725
1608, 1652, 1653, 1727, 1726
1609, 1653, 1654, 1728, 1727
1610, 1654, 1655, 1729, 1728
1611, 1655, 1656, 1730, 1729
1612, 1656, 1657, 1731, 1730
1613, 1657, 1658, 1732, 1731
1614, 1658, 1659, 1733, 1732
1615, 1659, 1660, 1734, 1733
1616, 1660, 1661, 1735, 1734
1617, 1661, 1662, 1736, 1735
1618, 1662, 1663, 1737, 1736
1619, 1663, 1664, 1738, 1737
1620, 1664, 1665, 1739, 1738
1621, 1665, 1666, 1740, 1739
1622, 1666, 1667, 1741, 1740
1623, 1667, 1668, 1742, 1741
1624, 1668, 1669, 1743, 1742
1625, 1671, 1670, 1744, 1745
1626, 1670, 1672, 1746, 1744
1627, 1672, 1673, 1747, 1746
1628, 1673, 1674, 1748, 1747
1629, 1674, 1675, 1749, 1748
1630, 1675, 1676, 1750, 1749
1631, 1676, 1677, 1751, 1750
1632, 1677, 1678, 1752, 1751
1633, 1678, 1679, 1753, 1752
1634, 1679, 1680, 1754, 1753
1635, 1680, 1681, 1755, 1754
1636, 1681, 1682, 1756, 1755
1637, 1682, 1683, 1757, 1756
1638, 1683, 1684, 1758, 1757
1639, 1684, 1685, 1759, 1758
1640, 1685, 1686, 1760, 1759
1641, 1686, 1687, 1761, 1760
1642, 1687, 1688, 1762, 1761
1643, 1688, 1689, 1763, 1762
1644, 1689, 1690, 1764, 1763
1645, 1690, 1691, 1765, 1764
1646, 1691, 1692, 1766, 1765
1647, 1692, 1693, 1767, 1766
1648, 1693, 1694, 1768, 1767
1649, 1694, 1695, 1769, 1768
1650, 1695, 1696, 1770, 1769
1651, 1696, 1697, 1771, 1770
1652, 1697, 1698, 1772, 1771
1653, 1698, 1699, 1773, 1772
1654, 1699, 1700, 1774, 1773
1655, 1700, 1701, 1775, 1774
1656, 1701, 1702, 1776, 1775
1657, 1702, 1703, 1777, 1776
1658, 1703, 1704, 1778, 1777
1659, 1704, 1705, 1779, 1778
1660, 1705, 1706, 1780, 1779
1661, 1706, 1707, 1781, 1780
1662, 1707, 1708, 1782, 1781
1663, 1708, 1709, 1783, 1782
1664, 1709, 1710, 1784, 1783
1665, 1710, 1711, 1785, 1784
1666, 1711, 1712, 1786, 1785
1667, 1712, 1713, 1787, 1786
1668, 1713, 1714, 1788, 1787
1669, 1714, 1715, 1789, 1788
1670, 1715, 1716, 1790, 1789
1671, 1716, 1717, 1791, 1790
1672, 1717, 1718, 1792, 1791
1673, 1718, 1719, 1793, 1792
1674, 1719, 1720, 1794, 1793
1675, 1720, 1721, 1795, 1794
1676, 1721, 1722, 1796, 1795
1677, 1722, 1723, 1797, 1796
1678, 1723, 1724, 1798, 1797
1679, 1724, 1725, 1799, 1798
1680, 1725, 1726, 1800, 1799
1681, 1726, 1727, 1801, 1800
1682, 1727, 1728, 1802, 1801
1683, 1728, 1729, 1803, 1802
1684, 1729, 1730, 1804, 1803
1685, 1730, 1731, 1805, 1804
1686, 1731, 1732, 1806, 1805
1687, 1732, 1733, 1807, 1806
1688, 1733, 1734, 1808, 1807
1689, 1734, 1735, 1809, 1808
1690, 1735, 1736, 1810, 1809
1691, 1736, 1737, 1811, 1810
1692, 1737, 1738, 1812, 1811
1693, 1738, 1739, 1813, 1812
1694, 1739, 1740, 1814, 1813
1695, 1740, 1741, 1815, 1814
1696, 1741, 1742, 1816, 1815
1697, 1742, 1743, 1817, 1816
1698, 1745, 1744, 1818, 1819
1699, 1744, 1746, 1820, 1818
1700, 1746, 1747, 1821, 1820
1701, 1747, 1748, 1822, 1821
1702, 1748, 1749, 1823, 1822
1703, 1749, 1750, 1824, 1823
1704, 1750, 1751, 1825, 1824
1705, 1751, 1752, 1826, 1825
1706, 1752, 1753, 1827, 1826
1707, 1753, 1754, 1828, 1827
1708, 1754, 1755, 1829, 1828
1709, 1755, 1756, 1830, 1829
1710, 1756, 1757, 1831, 1830
1711, 1757, 1758, 1832, 1831
1712, 1758, 1759, 1833, 1832
1713, 1759, 1760, 1834, 1833
1714, 1760, 1761, 1835, 1834
1715, 1761, 1762, 1836, 1835
1716, 1762, 1763, 1837, 1836
1717, 1763, 1764, 1838, 1837
1718, 1764, 1765, 1839, 1838
1719, 1765, 1766, 1840, 1839
1720, 1766, 1767, 1841, 1840
1721, 1767, 1768, 1842, 1841
1722, 1768, 1769, 1843, 1842
1723, 1769, 1770, 1844, 1843
1724, 1770, 1771, 1845, 1844
1725, 1771, 1772, 1846, 1845
1726, 1772, 1773, 1847, 1846
1727, 1773, 1774, 1848, 1847
1728, 1774, 1775, 1849, 1848
1729, 1775, 1776, 1850, 1849
1730, 1776, 1777, 1851, 1850
1731, 1777, 1778, 1852, 1851
1732, 1778, 1779, 1853, 1852
1733, 1779, 1780, 1854, 1853
1734, 1780, 1781, 1855, 1854
1735, 1781, 1782, 1856, 1855
1736, 1782, 1783, 1857, 1856
1737, 1783, 1784, 1858, 1857
1738, 1784, 1785, 1859, 1858
1739, 1785, 1786, 1860, 1859
1740, 1786, 1787, 1861, 1860
1741, 1787, 1788, 1862, 1861
1742, 1788, 1789, 1863, 1862
1743, 1789, 1790, 1864, 1863
1744, 1790, 1791, 1865, 1864
1745, 1791, 1792, 1866, 1865
1746, 1792, 1793, 1867, 1866
1747, 1793, 1794, 1868, 1867
1748, 1794, 1795, 1869, 1868
1749, 1795, 1796, 1870, 1869
1750, 1796, 1797, 1871, 1870
1751, 1797, 1798, 1872, 1871
1752, 1798, 1799, 1873, 1872
1753, 1799, 1800, 1874, 1873
1754, 1800, 1801, 1875, 1874
1755, 1801, 1802, 1876, 1875
1756, 1802, 1803, 1877, 1876
1757, 1803, 1804, 1878, 1877
1758, 1804, 1805, 1879, 1878
1759, 1805, 1806, 1880, 1879
1760, 1806, 1807, 1881, 1880
1761, 1807, 1808, 1882, 1881
1762, 1808, 1809, 1883, 1882
1763, 1809, 1810, 1884, 1883
1764, 1810, 1811, 1885, 1884
1765, 1811, 1812, 1886, 1885
1766, 1812, 1813, 1887, 1886
1767, 1813, 1814, 1888, 1887
1768, 1814, 1815, 1889, 1888
1769, 1815, 1816, 1890, 1889
1770, 1816, 1817, 1891, 1890
1771, 1819, 1818, 1892, 1893
1772, 1818, 1820, 1894, 1892
1773, 1820, 1821, 1895, 1894
1774, 1821, 1822, 1896, 1895
1775, 1822, 1823, 1897, 1896
1776, 1823, 1824, 1898, 1897
1777, 1824, 1825, 1899, 1898
1778, 1825, 1826, 1900, 1899
1779, 1826, 1827, 1901, 1900
1780, 1827, 1828, 1902, 1901
1781, 1828, 1829, 1903, 1902
1782, 1829, 1830, 1904, 1903
1783, 1830, 1831, 1905, 1904
1784, 1831, 1832, 1906, 1905
1785, 1832, 1833, 1907, 1906
1786, 1833, 1834, 1908, 1907
1787, 1834, 1835, 1909, 1908
1788, 1835, 1836, 1910, 1909
1789, 1836, 1837, 1911, 1910
1790, 1837, 1838, 1912, 1911
1791, 1838, 1839, 1913, 1912
1792, 1839, 1840, 1914, 1913
1793, 1840, 1841, 1915, 1914
1794, 1841, 1842, 1916, 1915
1795, 1842, 1843, 1917, 1916
1796, 1843, 1844, 1918, 1917
1797, 1844, 1845, 1919, 1918
1798, 1845, 1846, 1920, 1919
1799, 1846, 1847, 1921, 1920
1800, 1847, 1848, 1922, 1921
1801, 1848, 1849, 1923, 1922
1802, 1849, 1850, 1924, 1923
1803, 1850, 1851, 1925, 1924
1804, 1851, 1852, 1926, 1925
1805, 1852, 1853, 1927, 1926
1806, 1853, 1854, 1928, 1927
1807, 1854, 1855, 1929, 1928
1808, 1855, 1856, 1930, 1929
1809, 1856, 1857, 1931, 1930
1810, 1857, 1858, 1932, 1931
1811, 1858, 1859, 1933, 1932
1812, 1859, 1860, 1934, 1933
1813, 1860, 1861, 1935, 1934
1814, 1861, 1862, 1936, 1935
1815, 1862, 1863, 1937, 1936
1816, 1863, 1864, 1938, 1937
1817, 1864, 1865, 1939, 1938
1818, 1865, 1866, 1940, 1939
1819, 1866, 1867, 1941, 1940
1820, 1867, 1868, 1942, 1941
1821, 1868, 1869, 1943, 1942
1822, 1869, 1870, 1944, 1943
1823, 1870, 1871, 1945, 1944
1824, 1871, 1872, 1946, 1945
1825, 1872, 1873, 1947, 1946
1826, 1873, 1874, 1948, 1947
1827, 1874, 1875, 1949, 1948
1828, 1875, 1876, 1950, 1949
1829, 1876, 1877, 1951, 1950
1830, 1877, 1878, 1952, 1951
1831, 1878, 1879, 1953, 1952
1832, 1879, 1880, 1954, 1953
1833, 1880, 1881, 1955, 1954
1834, 1881, 1882, 1956, 1955
1835, 1882, 1883, 1957, 1956
1836, 1883, 1884, 1958, 1957
1837, 1884, 1885, 1959, 1958
1838, 1885, 1886, 1960, 1959
1839, 1886, 1887, 1961, 1960
1840, 1887, 1888, 1962, 1961
1841, 1888, 1889, 1963, 1962
1842, 1889, 1890, 1964, 1963
1843, 1890, 1891, 1965, 1964
1844, 1893, 1892, 1966, 1967
1845, 1892, 1894, 1968, 1966
1846, 1894, 1895, 1969, 1968
1847, 1895, 1896, 1970, 1969
1848, 1896, 1897, 1971, 1970
1849, 1897, 1898, 1972, 1971
1850, 1898, 1899, 1973, 1972
1851, 1899, 1900, 1974, 1973
1852, 1900, 1901, 1975, 1974
1853, 1901, 1902, 1976, 1975
1854, 1902, 1903, 1977, 1976
1855, 1903, 1904, 1978, 1977
1856, 1904, 1905, 1979, 1978
1857, 1905, 1906, 1980, 1979
1858, 1906, 1907, 1981, 1980
1859, 1907, 1908, 1982, 1981
1860, 1908, 1909, 1983, 1982
1861, 1909, 1910, 1984, 1983
1862, 1910, 1911, 1985, 1984
1863, 1911, 1912, 1986, 1985
1864, 1912, 1913, 1987, 1986
1865, 1913, 1914, 1988, 1987
1866, 1914, 1915, 1989, 1988
1867, 1915, 1916, 1990, 1989
1868, 1916, 1917, 1991, 1990
1869, 1917, 1918, 1992, 1991
1870, 1918, 1919, 1993, 1992
1871, 1919, 1920, 1994, 1993
1872, 1920, 1921, 1995, 1994
1873, 1921, 1922, 1996, 1995
1874, 1922, 1923, 1997, 1996
1875, 1923, 1924, 1998, 1997
1876, 1924, 1925, 1999, 1998
1877, 1925, 1926, 2000, 1999
1878, 1926, 1927, 2001, 2000
1879, 1927, 1928, 2002, 2001
1880, 1928, 1929, 2003, 2002
1881, 1929, 1930, 2004, 2003
1882, 1930, 1931, 2005, 2004
1883, 1931, 1932, 2006, 2005
1884, 1932, 1933, 2007, 2006
1885, 1933, 1934, 2008, 2007
1886, 1934, 1935, 2009, 2008
1887, 1935, 1936, 2010, 2009
1888, 1936, 1937, 2011, 2010
1889, 1937, 1938, 2012, 2011
1890, 1938, 1939, 2013, 2012
1891, 1939, 1940, 2014, 2013
1892, 1940, 1941, 2015, 2014
1893, 1941, 1942, 2016, 2015
1894, 1942, 1943, 2017, 2016
1895, 1943, 1944, 2018, 2017
1896, 1944, 1945, 2019, 2018
1897, 1945, 1946, 2020, 2019
1898, 1946, 1947, 2021, 2020
1899, 1947, 1948, 2022, 2021
1900, 1948, 1949, 2023, 2022
1901, 1949, 1950, 2024, 2023
1902, 1950, 1951, 2025, 2024
1903, 1951, 1952, 2026, 2025
1904, 1952, 1953, 2027, 2026
1905, 1953, 1954, 2028, 2027
1906, 1954, 1955, 2029, 2028
1907, 1955, 1956, 2030, 2029
1908, 1956, 1957, 2031, 2030
1909, 1957, 1958, 2032, 2031
1910, 1958, 1959, 2033, 2032
1911, 1959, 1960, 2034, 2033
1912, 1960, 1961, 2035, 2034
1913, 1961, 1962, 2036, 2035
1914, 1962, 1963, 2037, 2036
1915, 1963, 1964, 2038, 2037
1916, 1964, 1965, 2039, 2038
1917, 1967, 1966, 2040, 2041
1918, 1966, 1968, 2042, 2040
1919, 1968, 1969, 2043, 2042
1920, 1969, 1970, 2044, 2043
1921, 1970, 1971, 2045, 2044
1922, 1971, 1972, 2046, 2045
1923, 1972, 1973, 2047, 2046
1924, 1973, 1974, 2048, 2047
1925, 1974, 1975, 2049, 2048
1926, 1975, 1976, 2050, 2049
1927, 1976, 1977, 2051, 2050
1928, 1977, 1978, 2052, 2051
1929, 1978, 1979, 2053, 2052
1930, 1979, 1980, 2054, 2053
1931, 1980, 1981, 2055, 2054
1932, 1981, 1982, 2056, 2055
1933, 1982, 1983, 2057, 2056
1934, 1983, 1984, 2058, 2057
1935, 1984, 1985, 2059, 2058
1936, 1985, 1986, 2060, 2059
1937, 1986, 1987, 2061, 2060
1938, 1987, 1988, 2062, 2061
1939, 1988, 1989, 2063, 2062
1940, 1989, 1990, 2064, 2063
1941, 1990, 1991, 2065, 2064
1942, 1991, 1992, 2066, 2065
1943, 1992, 1993, 2067, 2066
1944, 1993, 1994, 2068, 2067
1945, 1994, 1995, 2069, 2068
1946, 1995, 1996, 2070, 2069
1947, 1996, 1997, 2071, 2070
1948, 1997, 1998, 2072, 2071
1949, 1998, 1999, 2073, 2072
1950, 1999, 2000, 2074, 2073
1951, 2000, 2001, 2075, 2074
1952, 2001, 2002, 2076, 2075
1953, 2002, 2003, 2077, 2076
1954, 2003, 2004, 2078, 2077
1955, 2004, 2005, 2079, 2078
1956, 2005, 2006, 2080, 2079
1957, 2006, 2007, 2081, 2080
1958, 2007, 2008, 2082, 2081
1959, 2008, 2009, 2083, 2082
1960, 2009, 2010, 2084, 2083
1961, 2010, 2011, 2085, 2084
1962, 2011, 2012, 2086, 2085
1963, 2012, 2013, 2087, 2086
1964, 2013, 2014, 2088, 2087
1965, 2014, 2015, 2089, 2088
1966, 2015, 2016, 2090, 2089
1967, 2016, 2017, 2091, 2090
1968, 2017, 2018, 2092, 2091
1969, 2018, 2019, 2093, 2092
1970, 2019, 2020, 2094, 2093
1971, 2020, 2021, 2095, 2094
1972, 2021, 2022, 2096, 2095
1973, 2022, 2023, 2097, 2096
1974, 2023, 2024, 2098, 2097
1975, 2024, 2025, 2099, 2098
1976, 2025, 2026, 2100, 2099
1977, 2026, 2027, 2101, 2100
1978, 2027, 2028, 2102, 2101
1979, 2028, 2029, 2103, 2102
1980, 2029, 2030, 2104, 2103
1981, 2030, 2031, 2105, 2104
1982, 2031, 2032, 2106, 2105
1983, 2032, 2033, 2107, 2106
1984, 2033, 2034, 2108, 2107
1985, 2034, 2035, 2109, 2108
1986, 2035, 2036, 2110, 2109
1987, 2036, 2037, 2111, 2110
1988, 2037, 2038, 2112, 2111
1989, 2038, 2039, 2113, 2112
1990, 2041, 2040, 2114, 2115
1991, 2040, 2042, 2116, 2114
1992, 2042, 2043, 2117, 2116
1993, 2043, 2044, 2118, 2117
1994, 2044, 2045, 2119, 2118
1995, 2045, 2046, 2120, 2119
1996, 2046, 2047, 2121, 2120
1997, 2047, 2048, 2122, 2121
1998, 2048, 2049, 2123, 2122
1999, 2049, 2050, 2124, 2123
2000, 2050, 2051, 2125, 2124
2001, 2051, 2052, 2126, 2125
2002, 2052, 2053, 2127, 2126
2003, 2053, 2054, 2128, 2127
2004, 2054, 2055, 2129, 2128
2005, 2055, 2056, 2130, 2129
2006, 2056, 2057, 2131, 2130
2007, 2057, 2058, 2132, 2131
2008, 2058, 2059, 2133, 2132
2009, 2059, 2060, 2134, 2133
2010, 2060, 2061, 2135, 2134
2011, 2061, 2062, 2136, 2135
2012, 2062, 2063, 2137, 2136
2013, 2063, 2064, 2138, 2137
2014, 2064, 2065, 2139, 2138
2015, 2065, 2066, 2140, 2139
2016, 2066, 2067, 2141, 2140
2017, 2067, 2068, 2142, 2141
2018, 2068, 2069, 2143, 2142
2019, 2069, 2070, 2144, 2143
2020, 2070, 2071, 2145, 2144
2021, 2071, 2072, 2146, 2145
2022, 2072, 2073, 2147, 2146
2023, 2073, 2074, 2148, 2147
2024, 2074, 2075, 2149, 2148
2025, 2075, 2076, 2150, 2149
2026, 2076, 2077, 2151, 2150
2027, 2077, 2078, 2152, 2151
2028, 2078, 2079, 2153, 2152
2029, 2079, 2080, 2154, 2153
2030, 2080, 2081, 2155, 2154
2031, 2081, 2082, 2156, 2155
2032, 2082, 2083, 2157, 2156
2033, 2083, 2084, 2158, 2157
2034, 2084, 2085, 2159, 2158
2035, 2085, 2086, 2160, 2159
2036, 2086, 2087, 2161, 2160
2037, 2087, 2088, 2162, 2161
2038, 2088, 2089, 2163, 2162
2039, 2089, 2090, 2164, 2163
2040, 2090, 2091, 2165, 2164
2041, 2091, 2092, 2166, 2165
2042, 2092, 2093, 2167, 2166
2043, 2093, 2094, 2168, 2167
2044, 2094, 2095, 2169, 2168
2045, 2095, 2096, 2170, 2169
2046, 2096, 2097, 2171, 2170
2047, 2097, 2098, 2172, 2171
2048, 2098, 2099, 2173, 2172
2049, 2099, 2100, 2174, 2173
2050, 2100, 2101, 2175, 2174
2051, 2101, 2102, 2176, 2175
2052, 2102, 2103, 2177, 2176
2053, 2103, 2104, 2178, 2177
2054, 2104, 2105, 2179, 2178
2055, 2105, 2106, 2180, 2179
2056, 2106, 2107, 2181, 2180
2057, 2107, 2108, 2182, 2181
2058, 2108, 2109, 2183, 2182
2059, 2109, 2110, 2184, 2183
2060, 2110, 2111, 2185, 2184
2061, 2111, 2112, 2186, 2185
2062, 2112, 2113, 2187, 2186
2063, 2115, 2114, 2188, 2189
2064, 2114, 2116, 2190, 2188
2065, 2116, 2117, 2191, 2190
2066, 2117, 2118, 2192, 2191
2067, 2118, 2119, 2193, 2192
2068, 2119, 2120, 2194, 2193
2069, 2120, 2121, 2195, 2194
2070, 2121, 2122, 2196, 2195
2071, 2122, 2123, 2197, 2196
2072, 2123, 2124, 2198, 2197
2073, 2124, 2125, 2199, 2198
2074, 2125, 2126, 2200, 2199
2075, 2126, 2127, 2201, 2200
2076, 2127, 2128, 2202, 2201
2077, 2128, 2129, 2203, 2202
2078, 2129, 2130, 2204, 2203
2079, 2130, 2131, 2205, 2204
2080, 2131, 2132, 2206, 2205
2081, 2132, 2133, 2207, 2206
2082, 2133, 2134, 2208, 2207
2083, 2134, 2135, 2209, 2208
2084, 2135, 2136, 2210, 2209
2085, 2136, 2137, 2211, 2210
2086, 2137, 2138, 2212, 2211
2087, 2138, 2139, 2213, 2212
2088, 2139, 2140, 2214, 2213
2089, 2140, 2141, 2215, 2214
2090, 2141, 2142, 2216, 2215
2091, 2142, 2143, 2217, 2216
2092, 2143, 2144, 2218, 2217
2093, 2144, 2145, 2219, 2218
2094, 2145, 2146, 2220, 2219
2095, 2146, 2147, 2221, 2220
2096, 2147, 2148, 2222, 2221
2097, 2148, 2149, 2223, 2222
2098, 2149, 2150, 2224, 2223
2099, 2150, 2151, 2225, 2224
2100, 2151, 2152, 2226, 2225
2101, 2152, 2153, 2227, 2226
2102, 2153, 2154, 2228, 2227
2103, 2154, 2155, 2229, 2228
2104, 2155, 2156, 2230, 2229
2105, 2156, 2157, 2231, 2230
2106, 2157, 2158, 2232, 2231
2107, 2158, 2159, 2233, 2232
2108, 2159, 2160, 2234, 2233
2109, 2160, 2161, 2235, 2234
2110, 2161, 2162, 2236, 2235
2111, 2162, 2163, 2237, 2236
2112, 2163, 2164, 2238, 2237
2113, 2164, 2165, 2239, 2238
2114, 2165, 2166, 2240, 2239
2115, 2166, 2167, 2241, 2240
2116, 2167, 2168, 2242, 2241
2117, 2168, 2169, 2243, 2242
2118, 2169, 2170, 2244, 2243
2119, 2170, 2171, 2245, 2244
2120, 2171, 2172, 2246, 2245
2121, 2172, 2173, 2247, 2246
2122, 2173, 2174, 2248, 2247
2123, 2174, 2175, 2249, 2248
2124, 2175, 2176, 2250, 2249
2125, 2176, 2177, 2251, 2250
2126, 2177, 2178, 2252, 2251
2127, 2178, 2179, 2253, 2252
2128, 2179, 2180, 2254, 2253
2129, 2180, 2181, 2255, 2254
2130, 2181, 2182, 2256, 2255
2131, 2182, 2183, 2257, 2256
2132, 2183, 2184, 2258, 2257
2133, 2184, 2185, 2259, 2258
2134, 2185, 2186, 2260, 2259
2135, 2186, 2187, 2261, 2260
2136, 2189, 2188, 2262, 2263
2137, 2188, 2190, 2264, 2262
2138, 2190, 2191, 2265, 2264
2139, 2191, 2192, 2266, 2265
2140, 2192, 2193, 2267, 2266
2141, 2193, 2194, 2268, 2267
2142, 2194, 2195, 2269, 2268
2143, 2195, 2196, 2270, 2269
2144, 2196, 2197, 2271, 2270
2145, 2197, 2198, 2272, 2271
2146, 2198, 2199, 2273, 2272
2147, 2199, 2200, 2274, 2273
2148, 2200, 2201, 2275, 2274
2149, 2201, 2202, 2276, 2275
2150, 2202, 2203, 2277, 2276
2151, 2203, 2204, 2278, 2277
2152, 2204, 2205, 2279, 2278
2153, 2205, 2206, 2280, 2279
2154, 2206, 2207, 2281, 2280
2155, 2207, 2208, 2282, 2281
2156, 2208, 2209, 2283, 2282
2157, 2209, 2210, 2284, 2283
2158, 2210, 2211, 2285, 2284
2159, 2211, 2212, 2286, 2285
2160, 2212, 2213, 2287, 2286
2161, 2213, 2214, 2288, 2287
2162, 2214, 2215, 2289, 2288
2163, 2215, 2216, 2290, 2289
2164, 2216, 2217, 2291, 2290
2165, 2217, 2218, 2292, 2291
2166, 2218, 2219, 2293, 2292
2167, 2219, 2220, 2294, 2293
2168, 2220, 2221, 2295, 2294
2169, 2221, 2222, 2296, 2295
2170, 2222, 2223, 2297, 2296
2171, 2223, 2224, 2298, 2297
2172, 2224, 2225, 2299, 2298
2173, 2225, 2226, 2300, 2299
2174, 2226, 2227, 2301, 2300
2175, 2227, 2228, 2302, 2301
2176, 2228, 2229, 2303, 2302
2177, 2229, 2230, 2304, 2303
2178, 2230, 2231, 2305, 2304
2179, 2231, 2232, 2306, 2305
2180, 2232, 2233, 2307, 2306
2181, 2233, 2234, 2308, 2307
2182, 2234, 2235, 2309, 2308
2183, 2235, 2236, 2310, 2309
2184, 2236, 2237, 2311, 2310
2185, 2237, 2238, 2312, 2311
2186, 2238, 2239, 2313, 2312
2187, 2239, 2240, 2314, 2313
2188, 2240, 2241, 2315, 2314
2189, 2241, 2242, 2316, 2315
2190, 2242, 2243, 2317, 2316
2191, 2243, 2244, 2318, 2317
2192, 2244, 2245, 2319, 2318
2193, 2245, 2246, 2320, 2319
2194, 2246, 2247, 2321, 2320
2195, 2247, 2248, 2322, 2321
2196, 2248, 2249, 2323, 2322
2197, 2249, 2250, 2324, 2323
2198, 2250, 2251, 2325, 2324
2199, 2251, 2252, 2326, 2325
2200, 2252, 2253, 2327, 2326
2201, 2253, 2254, 2328, 2327
2202, 2254, 2255, 2329, 2328
2203, 2255, 2256, 2330, 2329
2204, 2256, 2257, 2331, 2330
2205, 2257, 2258, 2332, 2331
2206, 2258, 2259, 2333, 2332
2207, 2259, 2260, 2334, 2333
2208, 2260, 2261, 2335, 2334
2209, 2263, 2262, 2336, 2337
2210, 2262, 2264, 2338, 2336
2211, 2264, 2265, 2339, 2338
2212, 2265, 2266, 2340, 2339
2213, 2266, 2267, 2341, 2340
2214, 2267, 2268, 2342, 2341
2215, 2268, 2269, 2343, 2342
2216, 2269, 2270, 2344, 2343
2217, 2270, 2271, 2345, 2344
2218, 2271, 2272, 2346, 2345
2219, 2272, 2273, 2347, 2346
2220, 2273, 2274, 2348, 2347
2221, 2274, 2275, 2349, 2348
2222, 2275, 2276, 2350, 2349
2223, 2276, 2277, 2351, 2350
2224, 2277, 2278, 2352, 2351
2225, 2278, 2279, 2353, 2352
2226, 2279, 2280, 2354, 2353
2227, 2280, 2281, 2355, 2354
2228, 2281, 2282, 2356, 2355
2229, 2282, 2283, 2357, 2356
2230, 2283, 2284, 2358, 2357
2231, 2284, 2285, 2359, 2358
2232, 2285, 2286, 2360, 2359
2233, 2286, 2287, 2361, 2360
2234, 2287, 2288, 2362, 2361
2235, 2288, 2289, 2363, 2362
2236, 2289, 2290, 2364, 2363
2237, 2290, 2291, 2365, 2364
2238, 2291, 2292, 2366, 2365
2239, 2292, 2293, 2367, 2366
2240, 2293, 2294, 2368, 2367
2241, 2294, 2295, 2369, 2368
2242, 2295, 2296, 2370, 2369
2243, 2296, 2297, 2371, 2370
2244, 2297, 2298, 2372, 2371
2245, 2298, 2299, 2373, 2372
2246, 2299, 2300, 2374, 2373
2247, 2300, 2301, 2375, 2374
2248, 2301, 2302, 2376, 2375
2249, 2302, 2303, 2377, 2376
2250, 2303, 2304, 2378, 2377
2251, 2304, 2305, 2379, 2378
2252, 2305, 2306, 2380, 2379
2253, 2306, 2307, 2381, 2380
2254, 2307, 2308, 2382, 2381
2255, 2308, 2309, 2383, 2382
2256, 2309, 2310, 2384, 2383
2257, 2310, 2311, 2385, 2384
2258, 2311, 2312, 2386, 2385
2259, 2312, 2313, 2387, 2386
2260, 2313, 2314, 2388, 2387
2261, 2314, 2315, 2389, 2388
2262, 2315, 2316, 2390, 2389
2263, 2316, 2317, 2391, 2390
2264, 2317, 2318, 2392, 2391
2265, 2318, 2319, 2393, 2392
2266, 2319, 2320, 2394, 2393
2267, 2320, 2321, 2395, 2394
2268, 2321, 2322, 2396, 2395
2269, 2322, 2323, 2397, 2396
2270, 2323, 2324, 2398, 2397
2271, 2324, 2325, 2399, 2398
2272, 2325, 2326, 2400, 2399
2273, 2326, 2327, 2401, 2400
2274, 2327, 2328, 2402, 2401
2275, 2328, 2329, 2403, 2402
2276, 2329, 2330, 2404, 2403
2277, 2330, 2331, 2405, 2404
2278, 2331, 2332, 2406, 2405
2279, 2332, 2333, 2407, 2406
2280, 2333, 2334, 2408, 2407
2281, 2334, 2335, 2409, 2408
2282, 2337, 2336, 2410, 2411
2283, 2336, 2338, 2412, 2410
2284, 2338, 2339, 2413, 2412
2285, 2339, 2340, 2414, 2413
2286, 2340, 2341, 2415, 2414
2287, 2341, 2342, 2416, 2415
2288, 2342, 2343, 2417, 2416
2289, 2343, 2344, 2418, 2417
2290, 2344, 2345, 2419, 2418
2291, 2345, 2346, 2420, 2419
2292, 2346, 2347, 2421, 2420
2293, 2347, 2348, 2422, 2421
2294, 2348, 2349, 2423, 2422
2295, 2349, 2350, 2424, 2423
2296, 2350, 2351, 2425, 2424
2297, 2351, 2352, 2426, 2425
2298, 2352, 2353, 2427, 2426
2299, 2353, 2354, 2428, 2427
2300, 2354, 2355, 2429, 2428
2301, 2355, 2356, 2430, 2429
2302, 2356, 2357, 2431, 2430
2303, 2357, 2358, 2432, 2431
2304, 2358, 2359, 2433, 2432
2305, 2359, 2360, 2434, 2433
2306, 2360, 2361, 2435, 2434
2307, 2361, 2362, 2436, 2435
2308, 2362, 2363, 2437, 2436
2309, 2363, 2364, 2438, 2437
2310, 2364, 2365, 2439, 2438
2311, 2365, 2366, 2440, 2439
2312, 2366, 2367, 2441, 2440
2313, 2367, 2368, 2442, 2441
2314, 2368, 2369, 2443, 2442
2315, 2369, 2370, 2444, 2443
2316, 2370, 2371, 2445, 2444
2317, 2371, 2372, 2446, 2445
2318, 2372, 2373, 2447, 2446
2319, 2373, 2374, 2448, 2447
2320, 2374, 2375, 2449, 2448
2321, 2375, 2376, 2450, 2449
2322, 2376, 2377, 2451, 2450
2323, 2377, 2378, 2452, 2451
2324, 2378, 2379, 2453, 2452
2325, 2379, 2380, 2454, 2453
2326, 2380, 2381, 2455, 2454
2327, 2381, 2382, 2456, 2455
2328, 2382, 2383, 2457, 2456
2329, 2383, 2384, 2458, 2457
2330, 2384, 2385, 2459, 2458
2331, 2385, 2386, 2460, 2459
2332, 2386, 2387, 2461, 2460
2333, 2387, 2388, 2462, 2461
2334, 2388, 2389, 2463, 2462
2335, 2389, 2390, 2464, 2463
2336, 2390, 2391, 2465, 2464
2337, 2391, 2392, 2466, 2465
2338, 2392, 2393, 2467, 2466
2339, 2393, 2394, 2468, 2467
2340, 2394, 2395, 2469, 2468
2341, 2395, 2396, 2470, 2469
2342, 2396, 2397, 2471, 2470
2343, 2397, 2398, 2472, 2471
2344, 2398, 2399, 2473, 2472
2345, 2399, 2400, 2474, 2473
2346, 2400, 2401, 2475, 2474
2347, 2401, 2402, 2476, 2475
2348, 2402, 2403, 2477, 2476
2349, 2403, 2404, 2478, 2477
2350, 2404, 2405, 2479, 2478
2351, 2405, 2406, 2480, 2479
2352, 2406, 2407, 2481, 2480
2353, 2407, 2408, 2482, 2481
2354, 2408, 2409, 2483, 2482
2355, 2411, 2410, 2484, 2485
2356, 2410, 2412, 2486, 2484
2357, 2412, 2413, 2487, 2486
2358, 2413, 2414, 2488, 2487
2359, 2414, 2415, 2489, 2488
2360, 2415, 2416, 2490, 2489
2361, 2416, 2417, 2491, 2490
2362, 2417, 2418, 2492, 2491
2363, 2418, 2419, 2493, 2492
2364, 2419, 2420, 2494, 2493
2365, 2420, 2421, 2495, 2494
2366, 2421, 2422, 2496, 2495
2367, 2422, 2423, 2497, 2496
2368, 2423, 2424, 2498, 2497
2369, 2424, 2425, 2499, 2498
2370, 2425, 2426, 2500, 2499
2371, 2426, 2427, 2501, 2500
2372, 2427, 2428, 2502, 2501
2373, 2428, 2429, 2503, 2502
2374, 2429, 2430, 2504, 2503
2375, 2430, 2431, 2505, 2504
2376, 2431, 2432, 2506, 2505
2377, 2432, 2433, 2507, 2506
2378, 2433, 2434, 2508, 2507
2379, 2434, 2435, 2509, 2508
2380, 2435, 2436, 2510, 2509
2381, 2436, 2437, 2511, 2510
2382, 2437, 2438, 2512, 2511
2383, 2438, 2439, 2513, 2512
2384, 2439, 2440, 2514, 2513
2385, 2440, 2441, 2515, 2514
2386, 2441, 2442, 2516, 2515
2387, 2442, 2443, 2517, 2516
2388, 2443, 2444, 2518, 2517
2389, 2444, 2445, 2519, 2518
2390, 2445, 2446, 2520, 2519
2391, 2446, 2447, 2521, 2520
2392, 2447, 2448, 2522, 2521
2393, 2448, 2449, 2523, 2522
2394, 2449, 2450, 2524, 2523
2395, 2450, 2451, 2525, 2524
2396, 2451, 2452, 2526, 2525
2397, 2452, 2453, 2527, 2526
2398, 2453, 2454, 2528, 2527
2399, 2454, 2455, 2529, 2528
2400, 2455, 2456, 2530, 2529
2401, 2456, 2457, 2531, 2530
2402, 2457, 2458, 2532, 2531
2403, 2458, 2459, 2533, 2532
2404, 2459, 2460, 2534, 2533
2405, 2460, 2461, 2535, 2534
2406, 2461, 2462, 2536, 2535
2407, 2462, 2463, 2537, 2536
2408, 2463, 2464, 2538, 2537
2409, 2464, 2465, 2539, 2538
2410, 2465, 2466, 2540, 2539
2411, 2466, 2467, 2541, 2540
2412, 2467, 2468, 2542, 2541
2413, 2468, 2469, 2543, 2542
2414, 2469, 2470, 2544, 2543
2415, 2470, 2471, 2545, 2544
2416, 2471, 2472, 2546, 2545
2417, 2472, 2473, 2547, 2546
2418, 2473, 2474, 2548, 2547
2419, 2474, 2475, 2549, 2548
2420, 2475, 2476, 2550, 2549
2421, 2476, 2477, 2551, 2550
2422, 2477, 2478, 2552, 2551
2423, 2478, 2479, 2553, 2552
2424, 2479, 2480, 2554, 2553
2425, 2480, 2481, 2555, 2554
2426, 2481, 2482, 2556, 2555
2427, 2482, 2483, 2557, 2556
2428, 2485, 2484, 2558, 2559
2429, 2484, 2486, 2560, 2558
2430, 2486, 2487, 2561, 2560
2431, 2487, 2488, 2562, 2561
2432, 2488, 2489, 2563, 2562
2433, 2489, 2490, 2564, 2563
2434, 2490, 2491, 2565, 2564
2435, 2491, 2492, 2566, 2565
2436, 2492, 2493, 2567, 2566
2437, 2493, 2494, 2568, 2567
2438, 2494, 2495, 2569, 2568
2439, 2495, 2496, 2570, 2569
2440, 2496, 2497, 2571, 2570
2441, 2497, 2498, 2572, 2571
2442, 2498, 2499, 2573, 2572
2443, 2499, 2500, 2574, 2573
2444, 2500, 2501, 2575, 2574
2445, 2501, 2502, 2576, 2575
2446, 2502, 2503, 2577, 2576
2447, 2503, 2504, 2578, 2577
2448, 2504, 2505, 2579, 2578
2449, 2505, 2506, 2580, 2579
2450, 2506, 2507, 2581, 2580
2451, 2507, 2508, 2582, 2581
2452, 2508, 2509, 2583, 2582
2453, 2509, 2510, 2584, 2583
2454, 2510, 2511, 2585, 2584
2455, 2511, 2512, 2586, 2585
2456, 2512, 2513, 2587, 2586
2457, 2513, 2514, 2588, 2587
2458, 2514, 2515, 2589, 2588
2459, 2515, 2516, 2590, 2589
2460, 2516, 2517, 2591, 2590
2461, 2517, 2518, 2592, 2591
2462, 2518, 2519, 2593, 2592
2463, 2519, 2520, 2594, 2593
2464, 2520, 2521, 2595, 2594
2465, 2521, 2522, 2596, 2595
2466, 2522, 2523, 2597, 2596
2467, 2523, 2524, 2598, 2597
2468, 2524, 2525, 2599, 2598
2469, 2525, 2526, 2600, 2599
2470, 2526, 2527, 2601, 2600
2471, 2527, 2528, 2602, 2601
2472, 2528, 2529, 2603, 2602
2473, 2529, 2530, 2604, 2603
2474, 2530, 2531, 2605, 2604
2475, 2531, 2532, 2606, 2605
2476, 2532, 2533, 2607, 2606
2477, 2533, 2534, 2608, 2607
2478, 2534, 2535, 2609, 2608
2479, 2535, 2536, 2610, 2609
2480, 2536, 2537, 2611, 2610
2481, 2537, 2538, 2612, 2611
2482, 2538, 2539, 2613, 2612
2483, 2539, 2540, 2614, 2613
2484, 2540, 2541, 2615, 2614
2485, 2541, 2542, 2616, 2615
2486, 2542, 2543, 2617, 2616
2487, 2543, 2544, 2618, 2617
2488, 2544, 2545, 2619, 2618
2489, 2545, 2546, 2620, 2619
2490, 2546, 2547, 2621, 2620
2491, 2547, 2548, 2622, 2621
2492, 2548, 2549, 2623, 2622
2493, 2549, 2550, 2624, 2623
2494, 2550, 2551, 2625, 2624
2495, 2551, 2552, 2626, 2625
2496, 2552, 2553, 2627, 2626
2497, 2553, 2554, 2628, 2627
2498, 2554, 2555, 2629, 2628
2499, 2555, 2556, 2630, 2629
2500, 2556, 2557, 2631, 2630
2501, 2559, 2558, 2632, 2633
2502, 2558, 2560, 2634, 2632
2503, 2560, 2561, 2635, 2634
2504, 2561, 2562, 2636, 2635
2505, 2562, 2563, 2637, 2636
2506, 2563, 2564, 2638, 2637
2507, 2564, 2565, 2639, 2638
2508, 2565, 2566, 2640, 2639
2509, 2566, 2567, 2641, 2640
2510, 2567, 2568, 2642, 2641
2511, 2568, 2569, 2643, 2642
2512, 2569, 2570, 2644, 2643
2513, 2570, 2571, 2645, 2644
2514, 2571, 2572, 2646, 2645
2515, 2572, 2573, 2647, 2646
2516, 2573, 2574, 2648, 2647
2517, 2574, 2575, 2649, 2648
2518, 2575, 2576, 2650, 2649
2519, 2576, 2577, 2651, 2650
2520, 2577, 2578, 2652, 2651
2521, 2578, 2579, 2653, 2652
2522, 2579, 2580, 2654, 2653
2523, 2580, 2581, 2655, 2654
2524, 2581, 2582, 2656, 2655
2525, 2582, 2583, 2657, 2656
2526, 2583, 2584, 2658, 2657
2527, 2584, 2585, 2659, 2658
2528, 2585, 2586, 2660, 2659
2529, 2586, 2587, 2661, 2660
2530, 2587, 2588, 2662, 2661
2531, 2588, 2589, 2663, 2662
2532, 2589, 2590, 2664, 2663
2533, 2590, 2591, 2665, 2664
2534, 2591, 2592, 2666, 2665
2535, 2592, 2593, 2667, 2666
2536, 2593, 2594, 2668, 2667
2537, 2594, 2595, 2669, 2668
2538, 2595, 2596, 2670, 2669
2539, 2596, 2597, 2671, 2670
2540, 2597, 2598, 2672, 2671
2541, 2598, 2599, 2673, 2672
2542, 2599, 2600, 2674, 2673
2543, 2600, 2601, 2675, 2674
2544, 2601, 2602, 2676, 2675
2545, 2602, 2603, 2677, 2676
2546, 2603, 2604, 2678, 2677
2547, 2604, 2605, 2679, 2678
2548, 2605, 2606, 2680, 2679
2549, 2606, 2607, 2681, 2680
2550, 2607, 2608, 2682, 2681
2551, 2608, 2609, 2683, 2682
2552, 2609, 2610, 2684, 2683
2553, 2610, 2611, 2685, 2684
2554, 2611, 2612, 2686, 2685
2555, 2612, 2613, 2687, 2686
2556, 2613, 2614, 2688, 2687
2557, 2614, 2615, 2689, 2688
2558, 2615, 2616, 2690, 2689
2559, 2616, 2617, 2691, 2690
2560, 2617, 2618, 2692, 2691
2561, 2618, 2619, 2693, 2692
2562, 2619, 2620, 2694, 2693
2563, 2620, 2621, 2695, 2694
2564, 2621, 2622, 2696, 2695
2565, 2622, 2623, 2697, 2696
2566, 2623, 2624, 2698, 2697
2567, 2624, 2625, 2699, 2698
2568, 2625, 2626, 2700, 2699
2569, 2626, 2627, 2701, 2700
2570, 2627, 2628, 2702, 2701
2571, 2628, 2629, 2703, 2702
2572, 2629, 2630, 2704, 2703
2573, 2630, 2631, 2705, 2704
2574, 2633, 2632, 2706, 2707
2575, 2632, 2634, 2708, 2706
2576, 2634, 2635, 2709, 2708
2577, 2635, 2636, 2710, 2709
2578, 2636, 2637, 2711, 2710
2579, 2637, 2638, 2712, 2711
2580, 2638, 2639, 2713, 2712
2581, 2639, 2640, 2714, 2713
2582, 2640, 2641, 2715, 2714
2583, 2641, 2642, 2716, 2715
2584, 2642, 2643, 2717, 2716
2585, 2643, 2644, 2718, 2717
2586, 2644, 2645, 2719, 2718
2587, 2645, 2646, 2720, 2719
2588, 2646, 2647, 2721, 2720
2589, 2647, 2648, 2722, 2721
2590, 2648, 2649, 2723, 2722
2591, 2649, 2650, 2724, 2723
2592, 2650, 2651, 2725, 2724
2593, 2651, 2652, 2726, 2725
2594, 2652, 2653, 2727, 2726
2595, 2653, 2654, 2728, 2727
2596, 2654, 2655, 2729, 2728
2597, 2655, 2656, 2730, 2729
2598, 2656, 2657, 2731, 2730
2599, 2657, 2658, 2732, 2731
2600, 2658, 2659, 2733, 2732
2601, 2659, 2660, 2734, 2733
2602, 2660, 2661, 2735, 2734
2603, 2661, 2662, 2736, 2735
2604, 2662, 2663, 2737, 2736
2605, 2663, 2664, 2738, 2737
2606, 2664, 2665, 2739, 2738
2607, 2665, 2666, 2740, 2739
2608, 2666, 2667, 2741, 2740
2609, 2667, 2668, 2742, 2741
2610, 2668, 2669, 2743, 2742
2611, 2669, 2670, 2744, 2743
2612, 2670, 2671, 2745, 2744
2613, 2671, 2672, 2746, 2745
2614, 2672, 2673, 2747, 2746
2615, 2673, 2674, 2748, 2747
2616, 2674, 2675, 2749, 2748
2617, 2675, 2676, 2750, 2749
2618, 2676, 2677, 2751, 2750
2619, 2677, 2678, 2752, 2751
2620, 2678, 2679, 2753, 2752
2621, 2679, 2680, 2754, 2753
2622, 2680, 2681, 2755, 2754
2623, 2681, 2682, 2756, 2755
2624, 2682, 2683, 2757, 2756
2625, 2683, 2684, 2758, 2757
2626, 2684, 2685, 2759, 2758
2627, 2685, 2686, 2760, 2759
2628, 2686, 2687, 2761, 2760
2629, 2687, 2688, 2762, 2761
2630, 2688, 2689, 2763, 2762
2631, 2689, 2690, 2764, 2763
2632, 2690, 2691, 2765, 2764
2633, 2691, 2692, 2766, 2765
2634, 2692, 2693, 2767, 2766
2635, 2693, 2694, 2768, 2767
2636, 2694, 2695, 2769, 2768
2637, 2695, 2696, 2770, 2769
2638, 2696, 2697, 2771, 2770
2639, 2697, 2698, 2772, 2771
2640, 2698, 2699, 2773, 2772
2641, 2699, 2700, 2774, 2773
2642, 2700, 2701, 2775, 2774
2643, 2701, 2702, 2776, 2775
2644, 2702, 2703, 2777, 2776
2645, 2703, 2704, 2778, 2777
2646, 2704, 2705, 2779, 2778
2647, 2707, 2706, 2780, 2781
2648, 2706, 2708, 2782, 2780
2649, 2708, 2709, 2783, 2782
2650, 2709, 2710, 2784, 2783
2651, 2710, 2711, 2785, 2784
2652, 2711, 2712, 2786, 2785
2653, 2712, 2713, 2787, 2786
2654, 2713, 2714, 2788, 2787
2655, 2714, 2715, 2789, 2788
2656, 2715, 2716, 2790, 2789
2657, 2716, 2717, 2791, 2790
2658, 2717, 2718, 2792, 2791
2659, 2718, 2719, 2793, 2792
2660, 2719, 2720, 2794, 2793
2661, 2720, 2721, 2795, 2794
2662, 2721, 2722, 2796, 2795
2663, 2722, 2723, 2797, 2796
2664, 2723, 2724, 2798, 2797
2665, 2724, 2725, 2799, 2798
2666, 2725, 2726, 2800, 2799
2667, 2726, 2727, 2801, 2800
2668, 2727, 2728, 2802, 2801
2669, 2728, 2729, 2803, 2802
2670, 2729, 2730, 2804, 2803
2671, 2730, 2731, 2805, 2804
2672, 2731, 2732, 2806, 2805
2673, 2732, 2733, 2807, 2806
2674, 2733, 2734, 2808, 2807
2675, 2734, 2735, 2809, 2808
2676, 2764, 2765, 2810, 2811
2677, 2765, 2766, 2812, 2810
2678, 2766, 2767, 2813, 2812
2679, 2767, 2768, 2814, 2813
2680, 2768, 2769, 2815, 2814
2681, 2769, 2770, 2816, 2815
2682, 2770, 2771, 2817, 2816
2683, 2771, 2772, 2818, 2817
2684, 2772, 2773, 2819, 2818
2685, 2773, 2774, 2820, 2819
2686, 2774, 2775, 2821, 2820
2687, 2775, 2776, 2822, 2821
2688, 2776, 2777, 2823, 2822
2689, 2777, 2778, 2824, 2823
2690, 2778, 2779, 2825, 2824
2691, 2781, 2780, 2826, 2827
2692, 2780, 2782, 2828, 2826
2693, 2782, 2783, 2829, 2828
2694, 2783, 2784, 2830, 2829
2695, 2784, 2785, 2831, 2830
2696, 2785, 2786, 2832, 2831
2697, 2786, 2787, 2833, 2832
2698, 2787, 2788, 2834, 2833
2699, 2788, 2789, 2835, 2834
2700, 2789, 2790, 2836, 2835
2701, 2790, 2791, 2837, 2836
2702, 2791, 2792, 2838, 2837
2703, 2792, 2793, 2839, 2838
2704, 2793, 2794, 2840, 2839
2705, 2794, 2795, 2841, 2840
2706, 2795, 2796, 2842, 2841
2707, 2796, 2797, 2843, 2842
2708, 2797, 2798, 2844, 2843
2709, 2798, 2799, 2845, 2844
2710, 2799, 2800, 2846, 2845
2711, 2800, 2801, 2847, 2846
2712, 2801, 2802, 2848, 2847
2713, 2802, 2803, 2849, 2848
2714, 2803, 2804, 2850, 2849
2715, 2804, 2805, 2851, 2850
2716, 2805, 2806, 2852, 2851
2717, 2806, 2807, 2853, 2852
2718, 2807, 2808, 2854, 2853
2719, 2808, 2809, 2855, 2854
2720, 2810, 2812, 2856, 2857
2721, 2812, 2813, 2858, 2856
2722, 2813, 2814, 2859, 2858
2723, 2814, 2815, 2860, 2859
2724, 2815, 2816, 2861, 2860
2725, 2816, 2817, 2862, 2861
2726, 2817, 2818, 2863, 2862
2727, 2818, 2819, 2864, 2863
2728, 2819, 2820, 2865, 2864
2729, 2820, 2821, 2866, 2865
2730, 2821, 2822, 2867, 2866
2731, 2822, 2823, 2868, 2867
2732, 2823, 2824, 2869, 2868
2733, 2824, 2825, 2870, 2869
2734, 2827, 2826, 2871, 2872
2735, 2826, 2828, 2873, 2871
2736, 2828, 2829, 2874, 2873
2737, 2829, 2830, 2875, 2874
2738, 2830, 2831, 2876, 2875
2739, 2831, 2832, 2877, 2876
2740, 2832, 2833, 2878, 2877
2741, 2833, 2834, 2879, 2878
2742, 2834, 2835, 2880, 2879
2743, 2835, 2836, 2881, 2880
2744, 2836, 2837, 2882, 2881
2745, 2837, 2838, 2883, 2882
2746, 2838, 2839, 2884, 2883
2747, 2839, 2840, 2885, 2884
2748, 2840, 2841, 2886, 2885
2749, 2841, 2842, 2887, 2886
2750, 2842, 2843, 2888, 2887
2751, 2843, 2844, 2889, 2888
2752, 2844, 2845, 2890, 2889
2753, 2845, 2846, 2891, 2890
2754, 2846, 2847, 2892, 2891
2755, 2847, 2848, 2893, 2892
2756, 2848, 2849, 2894, 2893
2757, 2849, 2850, 2895, 2894
2758, 2850, 2851, 2896, 2895
2759, 2851, 2852, 2897, 2896
2760, 2852, 2853, 2898, 2897
2761, 2853, 2854, 2899, 2898
2762, 2854, 2855, 2900, 2899
2763, 2858, 2859, 2901, 2902
2764, 2859, 2860, 2903, 2901
2765, 2860, 2861, 2904, 2903
2766, 2861, 2862, 2905, 2904
2767, 2862, 2863, 2906, 2905
2768, 2863, 2864, 2907, 2906
2769, 2864, 2865, 2908, 2907
2770, 2865, 2866, 2909, 2908
2771, 2866, 2867, 2910, 2909
2772, 2867, 2868, 2911, 2910
2773, 2868, 2869, 2912, 2911
2774, 2869, 2870, 2913, 2912
2775, 2872, 2871, 2914, 2915
2776, 2871, 2873, 2916, 2914
2777, 2873, 2874, 2917, 2916
2778, 2874, 2875, 2918, 2917
2779, 2875, 2876, 2919, 2918
2780, 2876, 2877, 2920, 2919
2781, 2877, 2878, 2921, 2920
2782, 2878, 2879, 2922, 2921
2783, 2879, 2880, 2923, 2922
2784, 2880, 2881, 2924, 2923
2785, 2881, 2882, 2925, 2924
2786, 2882, 2883, 2926, 2925
2787, 2883, 2884, 2927, 2926
2788, 2884, 2885, 2928, 2927
2789, 2885, 2886, 2929, 2928
2790, 2886, 2887, 2930, 2929
2791, 2887, 2888, 2931, 2930
2792, 2888, 2889, 2932, 2931
2793, 2889, 2890, 2933, 2932
2794, 2890, 2891, 2934, 2933
2795, 2891, 2892, 2935, 2934
2796, 2892, 2893, 2936, 2935
2797, 2893, 2894, 2937, 2936
2798, 2894, 2895, 2938, 2937
2799, 2895, 2896, 2939, 2938
2800, 2896, 2897, 2940, 2939
2801, 2897, 2898, 2941, 2940
2802, 2898, 2899, 2942, 2941
2803, 2899, 2900, 2943, 2942
2804, 2901, 2903, 2944, 2945
2805, 2903, 2904, 2946, 2944
2806, 2904, 2905, 2947, 2946
2807, 2905, 2906, 2948, 2947
2808, 2906, 2907, 2949, 2948
2809, 2907, 2908, 2950, 2949
2810, 2908, 2909, 2951, 2950
2811, 2909, 2910, 2952, 2951
2812, 2910, 2911, 2953, 2952
2813, 2911, 2912, 2954, 2953
2814, 2912, 2913, 2955, 2954
2815, 2915, 2914, 2956, 2957
2816, 2914, 2916, 2958, 2956
2817, 2916, 2917, 2959, 2958
2818, 2917, 2918, 2960, 2959
2819, 2918, 2919, 2961, 2960
2820, 2919, 2920, 2962, 2961
2821, 2920, 2921, 2963, 2962
2822, 2921, 2922, 2964, 2963
2823, 2922, 2923, 2965, 2964
2824, 2923, 2924, 2966, 2965
2825, 2924, 2925, 2967, 2966
2826, 2925, 2926, 2968, 2967
2827, 2926, 2927, 2969, 2968
2828, 2927, 2928, 2970, 2969
2829, 2928, 2929, 2971, 2970
2830, 2929, 2930, 2972, 2971
2831, 2930, 2931, 2973, 2972
2832, 2931, 2932, 2974, 2973
2833, 2932, 2933, 2975, 2974
2834, 2933, 2934, 2976, 2975
2835, 2934, 2935, 2977, 2976
2836, 2935, 2936, 2978, 2977
2837, 2936, 2937, 2979, 2978
2838, 2937, 2938, 2980, 2979
2839, 2938, 2939, 2981, 2980
2840, 2939, 2940, 2982, 2981
2841, 2940, 2941, 2983, 2982
2842, 2941, 2942, 2984, 2983
2843, 2942, 2943, 2985, 2984
2844, 2944, 2946, 2986, 2987
2845, 2946, 2947, 2988, 2986
2846, 2947, 2948, 2989, 2988
2847, 2948, 2949, 2990, 2989
2848, 2949, 2950, 2991, 2990
2849, 2950, 2951, 2992, 2991
2850, 2951, 2952, 2993, 2992
2851, 2952, 2953, 2994, 2993
2852, 2953, 2954, 2995, 2994
2853, 2954, 2955, 2996, 2995
2854, 2957, 2956, 2997, 2998
2855, 2956, 2958, 2999, 2997
2856, 2958, 2959, 3000, 2999
2857, 2959, 2960, 3001, 3000
2858, 2960, 2961, 3002, 3001
2859, 2961, 2962, 3003, 3002
2860, 2962, 2963, 3004, 3003
2861, 2963, 2964, 3005, 3004
2862, 2964, 2965, 3006, 3005
2863, 2965, 2966, 3007, 3006
2864, 2966, 2967, 3008, 3007
2865, 2967, 2968, 3009, 3008
2866, 2968, 2969, 3010, 3009
2867, 2969, 2970, 3011, 3010
2868, 2970, 2971, 3012, 3011
2869, 2971, 2972, 3013, 3012
2870, 2972, 2973, 3014, 3013
2871, 2973, 2974, 3015, 3014
2872, 2974, 2975, 3016, 3015
2873, 2975, 2976, 3017, 3016
2874, 2976, 2977, 3018, 3017
2875, 2977, 2978, 3019, 3018
2876, 2978, 2979, 3020, 3019
2877, 2979, 2980, 3021, 3020
2878, 2980, 2981, 3022, 3021
2879, 2981, 2982, 3023, 3022
2880, 2982, 2983, 3024, 3023
2881, 2983, 2984, 3025, 3024
2882, 2988, 2989, 3026, 3027
2883, 2989, 2990, 3028, 3026
2884, 2990, 2991, 3029, 3028
2885, 2991, 2992, 3030, 3029
2886, 2992, 2993, 3031, 3030
2887, 2993, 2994, 3032, 3031
2888, 2994, 2995, 3033, 3032
2889, 2995, 2996, 3034, 3033
2890, 2998, 2997, 3035, 3036
2891, 2997, 2999, 3037, 3035
2892, 2999, 3000, 3038, 3037
2893, 3000, 3001, 3039, 3038
2894, 3001, 3002, 3040, 3039
2895, 3002, 3003, 3041, 3040
2896, 3003, 3004, 3042, 3041
2897, 3004, 3005, 3043, 3042
2898, 3005, 3006, 3044, 3043
2899, 3006, 3007, 3045, 3044
2900, 3007, 3008, 3046, 3045
2901, 3008, 3009, 3047, 3046
2902, 3009, 3010, 3048, 3047
2903, 3010, 3011, 3049, 3048
2904, 3011, 3012, 3050, 3049
2905, 3012, 3013, 3051, 3050
2906, 3013, 3014, 3052, 3051
2907, 3014, 3015, 3053, 3052
2908, 3015, 3016, 3054, 3053
2909, 3016, 3017, 3055, 3054
2910, 3017, 3018, 3056, 3055
2911, 3018, 3019, 3057, 3056
2912, 3019, 3020, 3058, 3057
2913, 3020, 3021, 3059, 3058
2914, 3021, 3022, 3060, 3059
2915, 3022, 3023, 3061, 3060
2916, 3023, 3024, 3062, 3061
2917, 3024, 3025, 3063, 3062
2918, 3026, 3028, 3064, 3065
2919, 3028, 3029, 3066, 3064
2920, 3029, 3030, 3067, 3066
2921, 3030, 3031, 3068, 3067
2922, 3031, 3032, 3069, 3068
2923, 3032, 3033, 3070, 3069
2924, 3033, 3034, 3071, 3070
2925, 3036, 3035, 3072, 3073
2926, 3035, 3037, 3074, 3072
2927, 3037, 3038, 3075, 3074
2928, 3038, 3039, 3076, 3075
2929, 3039, 3040, 3077, 3076
2930, 3040, 3041, 3078, 3077
2931, 3041, 3042, 3079, 3078
2932, 3042, 3043, 3080, 3079
2933, 3043, 3044, 3081, 3080
2934, 3044, 3045, 3082, 3081
2935, 3045, 3046, 3083, 3082
2936, 3046, 3047, 3084, 3083
2937, 3047, 3048, 3085, 3084
2938, 3048, 3049, 3086, 3085
2939, 3049, 3050, 3087, 3086
2940, 3050, 3051, 3088, 3087
2941, 3051, 3052, 3089, 3088
2942, 3052, 3053, 3090, 3089
2943, 3053, 3054, 3091, 3090
2944, 3054, 3055, 3092, 3091
2945, 3055, 3056, 3093, 3092
2946, 3056, 3057, 3094, 3093
2947, 3057, 3058, 3095, 3094
2948, 3058, 3059, 3096, 3095
2949, 3059, 3060, 3097, 3096
2950, 3060, 3061, 3098, 3097
2951, 3061, 3062, 3099, 3098
2952, 3062, 3063, 3100, 3099
2953, 3073, 3072, 3101, 3102
2954, 3072, 3074, 3103, 3101
2955, 3074, 3075, 3104, 3103
2956, 3075, 3076, 3105, 3104
2957, 3076, 3077, 3106, 3105
2958, 3077, 3078, 3107, 3106
2959, 3078, 3079, 3108, 3107
2960, 3079, 3080, 3109, 3108
2961, 3080, 3081, 3110, 3109
2962, 3081, 3082, 3111, 3110
2963, 3082, 3083, 3112, 3111
2964, 3083, 3084, 3113, 3112
2965, 3084, 3085, 3114, 3113
2966, 3085, 3086, 3115, 3114
2967, 3086, 3087, 3116, 3115
2968, 3087, 3088, 3117, 3116
2969, 3088, 3089, 3118, 3117
2970, 3089, 3090, 3119, 3118
2971, 3090, 3091, 3120, 3119
2972, 3091, 3092, 3121, 3120
2973, 3092, 3093, 3122, 3121
2974, 3093, 3094, 3123, 3122
2975, 3094, 3095, 3124, 3123
2976, 3095, 3096, 3125, 3124
2977, 3096, 3097, 3126, 3125
2978, 3097, 3098, 3127, 3126
2979, 3098, 3099, 3128, 3127
2980, 3099, 3100, 3129, 3128
2981, 3102, 3101, 3130, 3131
2982, 3101, 3103, 3132, 3130
2983, 3103, 3104, 3133, 3132
2984, 3104, 3105, 3134, 3133
2985, 3105, 3106, 3135, 3134
2986, 3106, 3107, 3136, 3135
2987, 3107, 3108, 3137, 3136
2988, 3108, 3109, 3138, 3137
2989, 3109, 3110, 3139, 3138
2990, 3110, 3111, 3140, 3139
2991, 3111, 3112, 3141, 3140
2992, 3112, 3113, 3142, 3141
2993, 3113, 3114, 3143, 3142
2994, 3114, 3115, 3144, 3143
2995, 3115, 3116, 3145, 3144
2996, 3116, 3117, 3146, 3145
2997, 3117, 3118, 3147, 3146
2998, 3118, 3119, 3148, 3147
2999, 3119, 3120, 3149, 3148
3000, 3120, 3121, 3150, 3149
3001, 3121, 3122, 3151, 3150
3002, 3122, 3123, 3152, 3151
3003, 3123, 3124, 3153, 3152
3004, 3124, 3125, 3154, 3153
3005, 3125, 3126, 3155, 3154
3006, 3126, 3127, 3156, 3155
3007, 3127, 3128, 3157, 3156
3008, 3128, 3129, 3158, 3157
3009, 3131, 3130, 3159, 3160
3010, 3130, 3132, 3161, 3159
3011, 3132, 3133, 3162, 3161
3012, 3133, 3134, 3163, 3162
3013, 3134, 3135, 3164, 3163
3014, 3135, 3136, 3165, 3164
3015, 3136, 3137, 3166, 3165
3016, 3137, 3138, 3167, 3166
3017, 3138, 3139, 3168, 3167
3018, 3139, 3140, 3169, 3168
3019, 3140, 3141, 3170, 3169
3020, 3141, 3142, 3171, 3170
3021, 3142, 3143, 3172, 3171
3022, 3143, 3144, 3173, 3172
3023, 3144, 3145, 3174, 3173
3024, 3145, 3146, 3175, 3174
3025, 3146, 3147, 3176, 3175
3026, 3147, 3148, 3177, 3176
3027, 3148, 3149, 3178, 3177
3028, 3149, 3150, 3179, 3178
3029, 3150, 3151, 3180, 3179
3030, 3151, 3152, 3181, 3180
3031, 3152, 3153, 3182, 3181
3032, 3153, 3154, 3183, 3182
3033, 3154, 3155, 3184, 3183
3034, 3155, 3156, 3185, 3184
3035, 3156, 3157, 3186, 3185
3036, 3157, 3158, 3187, 3186
3037, 3160, 3159, 3188, 3189
3038, 3159, 3161, 3190, 3188
3039, 3161, 3162, 3191, 3190
3040, 3162, 3163, 3192, 3191
3041, 3163, 3164, 3193, 3192
3042, 3164, 3165, 3194, 3193
3043, 3165, 3166, 3195, 3194
3044, 3166, 3167, 3196, 3195
3045, 3167, 3168, 3197, 3196
3046, 3168, 3169, 3198, 3197
3047, 3169, 3170, 3199, 3198
3048, 3170, 3171, 3200, 3199
3049, 3171, 3172, 3201, 3200
3050, 3172, 3173, 3202, 3201
3051, 3173, 3174, 3203, 3202
3052, 3174, 3175, 3204, 3203
3053, 3175, 3176, 3205, 3204
3054, 3176, 3177, 3206, 3205
3055, 3177, 3178, 3207, 3206
3056, 3178, 3179, 3208, 3207
3057, 3179, 3180, 3209, 3208
3058, 3180, 3181, 3210, 3209
3059, 3181, 3182, 3211, 3210
3060, 3182, 3183, 3212, 3211
3061, 3183, 3184, 3213, 3212
3062, 3184, 3185, 3214, 3213
3063, 3185, 3186, 3215, 3214
3064, 3186, 3187, 3216, 3215
3065, 3189, 3188, 3217, 3218
3066, 3188, 3190, 3219, 3217
3067, 3190, 3191, 3220, 3219
3068, 3191, 3192, 3221, 3220
3069, 3192, 3193, 3222, 3221
3070, 3193, 3194, 3223, 3222
3071, 3194, 3195, 3224, 3223
3072, 3195, 3196, 3225, 3224
3073, 3196, 3197, 3226, 3225
3074, 3197, 3198, 3227, 3226
3075, 3198, 3199, 3228, 3227
3076, 3199, 3200, 3229, 3228
3077, 3200, 3201, 3230, 3229
3078, 3201, 3202, 3231, 3230
3079, 3202, 3203, 3232, 3231
3080, 3203, 3204, 3233, 3232
3081, 3204, 3205, 3234, 3233
3082, 3205, 3206, 3235, 3234
3083, 3206, 3207, 3236, 3235
3084, 3207, 3208, 3237, 3236
3085, 3208, 3209, 3238, 3237
3086, 3209, 3210, 3239, 3238
3087, 3210, 3211, 3240, 3239
3088, 3211, 3212, 3241, 3240
3089, 3212, 3213, 3242, 3241
3090, 3213, 3214, 3243, 3242
3091, 3214, 3215, 3244, 3243
3092, 3215, 3216, 3245, 3244
3093, 3218, 3217, 3246, 3247
3094, 3217, 3219, 3248, 3246
3095, 3219, 3220, 3249, 3248
3096, 3220, 3221, 3250, 3249
3097, 3221, 3222, 3251, 3250
3098, 3222, 3223, 3252, 3251
3099, 3223, 3224, 3253, 3252
3100, 3224, 3225, 3254, 3253
3101, 3225, 3226, 3255, 3254
3102, 3226, 3227, 3256, 3255
3103, 3227, 3228, 3257, 3256
3104, 3228, 3229, 3258, 3257
3105, 3229, 3230, 3259, 3258
3106, 3230, 3231, 3260, 3259
3107, 3231, 3232, 3261, 3260
3108, 3232, 3233, 3262, 3261
3109, 3233, 3234, 3263, 3262
3110, 3234, 3235, 3264, 3263
3111, 3235, 3236, 3265, 3264
3112, 3236, 3237, 3266, 3265
3113, 3237, 3238, 3267, 3266
3114, 3238, 3239, 3268, 3267
3115, 3239, 3240, 3269, 3268
3116, 3240, 3241, 3270, 3269
3117, 3241, 3242, 3271, 3270
3118, 3242, 3243, 3272, 3271
3119, 3243, 3244, 3273, 3272
3120, 3244, 3245, 3274, 3273
3121, 3247, 3246, 3275, 3276
3122, 3246, 3248, 3277, 3275
3123, 3248, 3249, 3278, 3277
3124, 3249, 3250, 3279, 3278
3125, 3250, 3251, 3280, 3279
3126, 3251, 3252, 3281, 3280
3127, 3252, 3253, 3282, 3281
3128, 3253, 3254, 3283, 3282
3129, 3254, 3255, 3284, 3283
3130, 3255, 3256, 3285, 3284
3131, 3256, 3257, 3286, 3285
3132, 3257, 3258, 3287, 3286
3133, 3258, 3259, 3288, 3287
3134, 3259, 3260, 3289, 3288
3135, 3260, 3261, 3290, 3289
3136, 3261, 3262, 3291, 3290
3137, 3262, 3263, 3292, 3291
3138, 3263, 3264, 3293, 3292
3139, 3264, 3265, 3294, 3293
3140, 3265, 3266, 3295, 3294
3141, 3266, 3267, 3296, 3295
3142, 3267, 3268, 3297, 3296
3143, 3268, 3269, 3298, 3297
3144, 3269, 3270, 3299, 3298
3145, 3270, 3271, 3300, 3299
3146, 3271, 3272, 3301, 3300
3147, 3272, 3273, 3302, 3301
3148, 3273, 3274, 3303, 3302
3149, 3276, 3275, 3304, 3305
3150, 3275, 3277, 3306, 3304
3151, 3277, 3278, 3307, 3306
3152, 3278, 3279, 3308, 3307
3153, 3279, 3280, 3309, 3308
3154, 3280, 3281, 3310, 3309
3155, 3281, 3282, 3311, 3310
3156, 3282, 3283, 3312, 3311
3157, 3283, 3284, 3313, 3312
3158, 3284, 3285, 3314, 3313
3159, 3285, 3286, 3315, 3314
3160, 3286, 3287, 3316, 3315
3161, 3287, 3288, 3317, 3316
3162, 3288, 3289, 3318, 3317
3163, 3289, 3290, 3319, 3318
3164, 3290, 3291, 3320, 3319
3165, 3291, 3292, 3321, 3320
3166, 3292, 3293, 3322, 3321
3167, 3293, 3294, 3323, 3322
3168, 3294, 3295, 3324, 3323
3169, 3295, 3296, 3325, 3324
3170, 3296, 3297, 3326, 3325
3171, 3297, 3298, 3327, 3326
3172, 3298, 3299, 3328, 3327
3173, 3299, 3300, 3329, 3328
3174, 3300, 3301, 3330, 3329
3175, 3301, 3302, 3331, 3330
3176, 3302, 3303, 3332, 3331
3177, 3305, 3304, 3333, 3334
3178, 3304, 3306, 3335, 3333
3179, 3306, 3307, 3336, 3335
3180, 3307, 3308, 3337, 3336
3181, 3308, 3309, 3338, 3337
3182, 3309, 3310, 3339, 3338
3183, 3310, 3311, 3340, 3339
3184, 3311, 3312, 3341, 3340
3185, 3312, 3313, 3342, 3341
3186, 3313, 3314, 3343, 3342
3187, 3314, 3315, 3344, 3343
3188, 3315, 3316, 3345, 3344
3189, 3316, 3317, 3346, 3345
3190, 3317, 3318, 3347, 3346
3191, 3318, 3319, 3348, 3347
3192, 3319, 3320, 3349, 3348
3193, 3320, 3321, 3350, 3349
3194, 3321, 3322, 3351, 3350
3195, 3322, 3323, 3352, 3351
3196, 3323, 3324, 3353, 3352
3197, 3324, 3325, 3354, 3353
3198, 3325, 3326, 3355, 3354
3199, 3326, 3327, 3356, 3355
3200, 3327, 3328, 3357, 3356
3201, 3328, 3329, 3358, 3357
3202, 3329, 3330, 3359, 3358
3203, 3330, 3331, 3360, 3359
3204, 3331, 3332, 3361, 3360
3205, 3334, 3333, 3362, 3363
3206, 3333, 3335, 3364, 3362
3207, 3335, 3336, 3365, 3364
3208, 3336, 3337, 3366, 3365
3209, 3337, 3338, 3367, 3366
3210, 3338, 3339, 3368, 3367
3211, 3339, 3340, 3369, 3368
3212, 3340, 3341, 3370, 3369
3213, 3341, 3342, 3371, 3370
3214, 3342, 3343, 3372, 3371
3215, 3343, 3344, 3373, 3372
3216, 3344, 3345, 3374, 3373
3217, 3345, 3346, 3375, 3374
3218, 3346, 3347, 3376, 3375
3219, 3347, 3348, 3377, 3376
3220, 3348, 3349, 3378, 3377
3221, 3349, 3350, 3379, 3378
3222, 3350, 3351, 3380, 3379
3223, 3351, 3352, 3381, 3380
3224, 3352, 3353, 3382, 3381
3225, 3353, 3354, 3383, 3382
3226, 3354, 3355, 3384, 3383
3227, 3355, 3356, 3385, 3384
3228, 3356, 3357, 3386, 3385
3229, 3357, 3358, 3387, 3386
3230, 3358, 3359, 3388, 3387
3231, 3359, 3360, 3389, 3388
3232, 3363, 3362, 3390, 3391
3233, 3362, 3364, 3392, 3390
3234, 3364, 3365, 3393, 3392
3235, 3365, 3366, 3394, 3393
3236, 3366, 3367, 3395, 3394
3237, 3367, 3368, 3396, 3395
3238, 3368, 3369, 3397, 3396
3239, 3369, 3370, 3398, 3397
3240, 3370, 3371, 3399, 3398
3241, 3371, 3372, 3400, 3399
3242, 3372, 3373, 3401, 3400
3243, 3373, 3374, 3402, 3401
3244, 3374, 3375, 3403, 3402
3245, 3375, 3376, 3404, 3403
3246, 3376, 3377, 3405, 3404
3247, 3377, 3378, 3406, 3405
3248, 3378, 3379, 3407, 3406
3249, 3379, 3380, 3408, 3407
3250, 3380, 3381, 3409, 3408
3251, 3381, 3382, 3410, 3409
3252, 3382, 3383, 3411, 3410
3253, 3383, 3384, 3412, 3411
3254, 3384, 3385, 3413, 3412
3255, 3385, 3386, 3414, 3413
3256, 3386, 3387, 3415, 3414
3257, 3387, 3388, 3416, 3415
3258, 3388, 3389, 3417, 3416
3259, 3391, 3390, 3418, 3419
3260, 3390, 3392, 3420, 3418
3261, 3392, 3393, 3421, 3420
3262, 3393, 3394, 3422, 3421
3263, 3394, 3395, 3423, 3422
3264, 3395, 3396, 3424, 3423
3265, 3396, 3397, 3425, 3424
3266, 3397, 3398, 3426, 3425
3267, 3398, 3399, 3427, 3426
3268, 3399, 3400, 3428, 3427
3269, 3400, 3401, 3429, 3428
3270, 3401, 3402, 3430, 3429
3271, 3402, 3403, 3431, 3430
3272, 3403, 3404, 3432, 3431
3273, 3404, 3405, 3433, 3432
3274, 3405, 3406, 3434, 3433
3275, 3406, 3407, 3435, 3434
3276, 3407, 3408, 3436, 3435
3277, 3408, 3409, 3437, 3436
3278, 3409, 3410, 3438, 3437
3279, 3410, 3411, 3439, 3438
3280, 3411, 3412, 3440, 3439
3281, 3412, 3413, 3441, 3440
3282, 3413, 3414, 3442, 3441
3283, 3414, 3415, 3443, 3442
3284, 3415, 3416, 3444, 3443
3285, 3416, 3417, 3445, 3444
3286, 3419, 3418, 3446, 3447
3287, 3418, 3420, 3448, 3446
3288, 3420, 3421, 3449, 3448
3289, 3421, 3422, 3450, 3449
3290, 3422, 3423, 3451, 3450
3291, 3423, 3424, 3452, 3451
3292, 3424, 3425, 3453, 3452
3293, 3425, 3426, 3454, 3453
3294, 3426, 3427, 3455, 3454
3295, 3427, 3428, 3456, 3455
3296, 3428, 3429, 3457, 3456
3297, 3429, 3430, 3458, 3457
3298, 3430, 3431, 3459, 3458
3299, 3431, 3432, 3460, 3459
3300, 3432, 3433, 3461, 3460
3301, 3433, 3434, 3462, 3461
3302, 3434, 3435, 3463, 3462
3303, 3435, 3436, 3464, 3463
3304, 3436, 3437, 3465, 3464
3305, 3437, 3438, 3466, 3465
3306, 3438, 3439, 3467, 3466
3307, 3439, 3440, 3468, 3467
3308, 3440, 3441, 3469, 3468
3309, 3441, 3442, 3470, 3469
3310, 3442, 3443, 3471, 3470
3311, 3443, 3444, 3472, 3471
3312, 3444, 3445, 3473, 3472
3313, 3447, 3446, 3474, 3475
3314, 3446, 3448, 3476, 3474
3315, 3448, 3449, 3477, 3476
3316, 3449, 3450, 3478, 3477
3317, 3450, 3451, 3479, 3478
3318, 3451, 3452, 3480, 3479
3319, 3452, 3453, 3481, 3480
3320, 3453, 3454, 3482, 3481
3321, 3454, 3455, 3483, 3482
3322, 3455, 3456, 3484, 3483
3323, 3456, 3457, 3485, 3484
3324, 3457, 3458, 3486, 3485
3325, 3458, 3459, 3487, 3486
3326, 3459, 3460, 3488, 3487
3327, 3460, 3461, 3489, 3488
3328, 3461, 3462, 3490, 3489
3329, 3462, 3463, 3491, 3490
3330, 3463, 3464, 3492, 3491
3331, 3464, 3465, 3493, 3492
3332, 3465, 3466, 3494, 3493
3333, 3466, 3467, 3495, 3494
3334, 3467, 3468, 3496, 3495
3335, 3468, 3469, 3497, 3496
3336, 3469, 3470, 3498, 3497
3337, 3470, 3471, 3499, 3498
3338, 3471, 3472, 3500, 3499
3339, 3472, 3473, 3501, 3500
3340, 3475, 3474, 3502, 3503
3341, 3474, 3476, 3504, 3502
3342, 3476, 3477, 3505, 3504
3343, 3477, 3478, 3506, 3505
3344, 3478, 3479, 3507, 3506
3345, 3479, 3480, 3508, 3507
3346, 3480, 3481, 3509, 3508
3347, 3481, 3482, 3510, 3509
3348, 3482, 3483, 3511, 3510
3349, 3483, 3484, 3512, 3511
3350, 3484, 3485, 3513, 3512
3351, 3485, 3486, 3514, 3513
3352, 3486, 3487, 3515, 3514
3353, 3487, 3488, 3516, 3515
3354, 3488, 3489, 3517, 3516
3355, 3489, 3490, 3518, 3517
3356, 3490, 3491, 3519, 3518
3357, 3491, 3492, 3520, 3519
3358, 3492, 3493, 3521, 3520
3359, 3493, 3494, 3522, 3521
3360, 3494, 3495, 3523, 3522
3361, 3495, 3496, 3524, 3523
3362, 3496, 3497, 3525, 3524
3363, 3497, 3498, 3526, 3525
3364, 3498, 3499, 3527, 3526
3365, 3499, 3500, 3528, 3527
3366, 3500, 3501, 3529, 3528
3367, 3503, 3502, 3530, 3531
3368, 3502, 3504, 3532, 3530
3369, 3504, 3505, 3533, 3532
3370, 3505, 3506, 3534, 3533
3371, 3506, 3507, 3535, 3534
3372, 3507, 3508, 3536, 3535
3373, 3508, 3509, 3537, 3536
3374, 3509, 3510, 3538, 3537
3375, 3510, 3511, 3539, 3538
3376, 3511, 3512, 3540, 3539
3377, 3512, 3513, 3541, 3540
3378, 3513, 3514, 3542, 3541
3379, 3514, 3515, 3543, 3542
3380, 3515, 3516, 3544, 3543
3381, 3516, 3517, 3545, 3544
3382, 3517, 3518, 3546, 3545
3383, 3518, 3519, 3547, 3546
3384, 3519, 3520, 3548, 3547
3385, 3520, 3521, 3549, 3548
3386, 3521, 3522, 3550, 3549
3387, 3522, 3523, 3551, 3550
3388, 3523, 3524, 3552, 3551
3389, 3524, 3525, 3553, 3552
3390, 3525, 3526, 3554, 3553
3391, 3526, 3527, 3555, 3554
3392, 3527, 3528, 3556, 3555
3393, 3528, 3529, 3557, 3556
3394, 3531, 3530, 3558, 3559
3395, 3530, 3532, 3560, 3558
3396, 3532, 3533, 3561, 3560
3397, 3533, 3534, 3562, 3561
3398, 3534, 3535, 3563, 3562
3399, 3535, 3536, 3564, 3563
3400, 3536, 3537, 3565, 3564
3401, 3537, 3538, 3566, 3565
3402, 3538, 3539, 3567, 3566
3403, 3539, 3540, 3568, 3567
3404, 3540, 3541, 3569, 3568
3405, 3541, 3542, 3570, 3569
3406, 3542, 3543, 3571, 3570
3407, 3543, 3544, 3572, 3571
3408, 3544, 3545, 3573, 3572
3409, 3545, 3546, 3574, 3573
3410, 3546, 3547, 3575, 3574
3411, 3547, 3548, 3576, 3575
3412, 3548, 3549, 3577, 3576
3413, 3549, 3550, 3578, 3577
3414, 3550, 3551, 3579, 3578
3415, 3551, 3552, 3580, 3579
3416, 3552, 3553, 3581, 3580
3417, 3553, 3554, 3582, 3581
3418, 3554, 3555, 3583, 3582
3419, 3555, 3556, 3584, 3583
3420, 3556, 3557, 3585, 3584
3421, 3559, 3558, 3586, 3587
3422, 3558, 3560, 3588, 3586
3423, 3560, 3561, 3589, 3588
3424, 3561, 3562, 3590, 3589
3425, 3562, 3563, 3591, 3590
3426, 3563, 3564, 3592, 3591
3427, 3564, 3565, 3593, 3592
3428, 3565, 3566, 3594, 3593
3429, 3566, 3567, 3595, 3594
3430, 3567, 3568, 3596, 3595
3431, 3568, 3569, 3597, 3596
3432, 3569, 3570, 3598, 3597
3433, 3570, 3571, 3599, 3598
3434, 3571, 3572, 3600, 3599
3435, 3572, 3573, 3601, 3600
3436, 3573, 3574, 3602, 3601
3437, 3574, 3575, 3603, 3602
3438, 3575, 3576, 3604, 3603
3439, 3576, 3577, 3605, 3604
3440, 3577, 3578, 3606, 3605
3441, 3578, 3579, 3607, 3606
3442, 3579, 3580, 3608, 3607
3443, 3580, 3581, 3609, 3608
3444, 3581, 3582, 3610, 3609
3445, 3582, 3583, 3611, 3610
3446, 3583, 3584, 3612, 3611
3447, 3584, 3585, 3613, 3612
3448, 3587, 3586, 3614, 3615
3449, 3586, 3588, 3616, 3614
3450, 3588, 3589, 3617, 3616
3451, 3589, 3590, 3618, 3617
3452, 3590, 3591, 3619, 3618
3453, 3591, 3592, 3620, 3619
3454, 3592, 3593, 3621, 3620
3455, 3593, 3594, 3622, 3621
3456, 3594, 3595, 3623, 3622
3457, 3595, 3596, 3624, 3623
3458, 3596, 3597, 3625, 3624
3459, 3597, 3598, 3626, 3625
3460, 3598, 3599, 3627, 3626
3461, 3599, 3600, 3628, 3627
3462, 3600, 3601, 3629, 3628
3463, 3601, 3602, 3630, 3629
3464, 3602, 3603, 3631, 3630
3465, 3603, 3604, 3632, 3631
3466, 3604, 3605, 3633, 3632
3467, 3605, 3606, 3634, 3633
3468, 3606, 3607, 3635, 3634
3469, 3607, 3608, 3636, 3635
3470, 3608, 3609, 3637, 3636
3471, 3609, 3610, 3638, 3637
3472, 3610, 3611, 3639, 3638
3473, 3611, 3612, 3640, 3639
3474, 3615, 3614, 3641, 3642
3475, 3614, 3616, 3643, 3641
3476, 3616, 3617, 3644, 3643
3477, 3617, 3618, 3645, 3644
3478, 3618, 3619, 3646, 3645
3479, 3619, 3620, 3647, 3646
3480, 3620, 3621, 3648, 3647
3481, 3621, 3622, 3649, 3648
3482, 3622, 3623, 3650, 3649
3483, 3623, 3624, 3651, 3650
3484, 3624, 3625, 3652, 3651
3485, 3625, 3626, 3653, 3652
3486, 3626, 3627, 3654, 3653
3487, 3627, 3628, 3655, 3654
3488, 3628, 3629, 3656, 3655
3489, 3629, 3630, 3657, 3656
3490, 3630, 3631, 3658, 3657
3491, 3631, 3632, 3659, 3658
3492, 3632, 3633, 3660, 3659
3493, 3633, 3634, 3661, 3660
3494, 3634, 3635, 3662, 3661
3495, 3635, 3636, 3663, 3662
3496, 3636, 3637, 3664, 3663
3497, 3637, 3638, 3665, 3664
3498, 3638, 3639, 3666, 3665
3499, 3639, 3640, 3667, 3666
*NSET, NSET=STUBREAR
1
*NSET, NSET=NALL, GENERATE
1, 3667
*MATERIAL, NAME=DISC
*ELASTIC
1.970000e+11, 0.3000
*DENSITY
8000.0000
*EXPANSION, ZERO=300.0
1.100000e-05
*SOLID SECTION, ELSET=DISC, MATERIAL=DISC
*INITIAL CONDITIONS, TYPE=TEMPERATURE
NALL, 300.0
*BOUNDARY
STUBREAR, 2, 2, 0.0
** ---- step 1: centrifugal at MCS
*STEP
*STATIC
*DLOAD
DISC, CENTRIF, 6.354946e+07, 0., 0., 0., 0., 1., 0.
582, P2, -1.533522e+08
618, P2, -1.533522e+08
656, P2, -1.533522e+08
695, P2, -1.533522e+08
736, P2, -1.533522e+08
778, P2, -1.533522e+08
821, P2, -1.533522e+08
894, P2, -1.533522e+08
967, P2, -1.533522e+08
1040, P2, -1.533522e+08
1113, P2, -1.533522e+08
1186, P2, -1.533522e+08
1259, P2, -1.533522e+08
1332, P2, -1.533522e+08
1405, P2, -1.533522e+08
1478, P2, -1.533522e+08
1551, P2, -1.533522e+08
1624, P2, -1.533522e+08
1697, P2, -1.533522e+08
1770, P2, -1.533522e+08
1843, P2, -1.533522e+08
1916, P2, -1.533522e+08
1989, P2, -1.533522e+08
2062, P2, -1.533522e+08
2135, P2, -1.533522e+08
2208, P2, -1.533522e+08
2281, P2, -1.533522e+08
2354, P2, -1.533522e+08
2427, P2, -1.533522e+08
2500, P2, -1.533522e+08
2573, P2, -1.533522e+08
2646, P2, -1.533522e+08
2690, P2, -1.533522e+08
2733, P2, -1.533522e+08
2774, P2, -1.533522e+08
2814, P2, -1.533522e+08
2853, P2, -1.533522e+08
2889, P2, -1.533522e+08
2924, P2, -1.533522e+08
*TEMPERATURE
NALL, 300.0
*NODE FILE
U
*EL FILE
S
*EL PRINT, ELSET=DISC
S
*END STEP
** ---- step 2: MCS + start thermal gradient
*STEP
*STATIC
*DLOAD
DISC, CENTRIF, 6.354946e+07, 0., 0., 0., 0., 1., 0.
582, P2, -1.533522e+08
618, P2, -1.533522e+08
656, P2, -1.533522e+08
695, P2, -1.533522e+08
736, P2, -1.533522e+08
778, P2, -1.533522e+08
821, P2, -1.533522e+08
894, P2, -1.533522e+08
967, P2, -1.533522e+08
1040, P2, -1.533522e+08
1113, P2, -1.533522e+08
1186, P2, -1.533522e+08
1259, P2, -1.533522e+08
1332, P2, -1.533522e+08
1405, P2, -1.533522e+08
1478, P2, -1.533522e+08
1551, P2, -1.533522e+08
1624, P2, -1.533522e+08
1697, P2, -1.533522e+08
1770, P2, -1.533522e+08
1843, P2, -1.533522e+08
1916, P2, -1.533522e+08
1989, P2, -1.533522e+08
2062, P2, -1.533522e+08
2135, P2, -1.533522e+08
2208, P2, -1.533522e+08
2281, P2, -1.533522e+08
2354, P2, -1.533522e+08
2427, P2, -1.533522e+08
2500, P2, -1.533522e+08
2573, P2, -1.533522e+08
2646, P2, -1.533522e+08
2690, P2, -1.533522e+08
2733, P2, -1.533522e+08
2774, P2, -1.533522e+08
2814, P2, -1.533522e+08
2853, P2, -1.533522e+08
2889, P2, -1.533522e+08
2924, P2, -1.533522e+08
*TEMPERATURE
1, 544.893
2, 544.955
3, 544.955
4, 544.893
5, 545.140
6, 545.140
7, 545.449
8, 545.449
9, 545.882
10, 545.882
11, 546.439
12, 546.439
13, 547.119
14, 547.119
15, 547.923
16, 547.923
17, 548.851
18, 548.851
19, 549.902
20, 549.902
21, 551.077
22, 551.077
23, 552.376
24, 552.376
25, 553.798
26, 553.798
27, 555.344
28, 555.344
29, 557.014
30, 557.014
31, 558.807
32, 558.807
33, 560.724
34, 560.724
35, 562.765
36, 562.765
37, 564.929
38, 564.929
39, 567.217
40, 567.217
41, 569.629
42, 569.629
43, 572.165
44, 572.165
45, 574.824
46, 574.824
47, 577.607
48, 577.607
49, 580.513
50, 580.513
51, 583.543
52, 583.543
53, 585.761
54, 585.761
55, 544.955
56, 544.893
57, 545.140
58, 545.449
59, 545.882
60, 546.439
61, 547.119
62, 547.923
63, 548.851
64, 549.902
65, 551.077
66, 552.376
67, 553.798
68, 555.344
69, 557.014
70, 558.807
71, 560.724
72, 562.765
73, 564.929
74, 567.217
75, 569.629
76, 572.165
77, 574.824
78, 577.607
79, 580.513
80, 583.543
81, 585.761
82, 544.955
83, 544.893
84, 545.140
85, 545.449
86, 545.882
87, 546.439
88, 547.119
89, 547.923
90, 548.851
91, 549.902
92, 551.077
93, 552.376
94, 553.798
95, 555.344
96, 557.014
97, 558.807
98, 560.724
99, 562.765
100, 564.929
101, 567.217
102, 569.629
103, 572.165
104, 574.824
105, 577.607
106, 580.513
107, 583.543
108, 585.761
109, 586.697
110, 586.697
111, 544.955
112, 544.893
113, 545.140
114, 545.449
115, 545.882
116, 546.439
117, 547.119
118, 547.923
119, 548.851
120, 549.902
121, 551.077
122, 552.376
123, 553.798
124, 555.344
125, 557.014
126, 558.807
127, 560.724
128, 562.765
129, 564.929
130, 567.217
131, 569.629
132, 572.165
133, 574.824
134, 577.607
135, 580.513
136, 583.543
137, 585.761
138, 586.697
139, 544.955
140, 544.893
141, 545.140
142, 545.449
143, 545.882
144, 546.439
145, 547.119
146, 547.923
147, 548.851
148, 549.902
149, 551.077
150, 552.376
151, 553.798
152, 555.344
153, 557.014
154, 558.807
155, 560.724
156, 562.765
157, 564.929
158, 567.217
159, 569.629
160, 572.165
161, 574.824
162, 577.607
163, 580.513
164, 583.543
165, 585.761
166, 586.697
167, 544.955
168, 544.893
169, 545.140
170, 545.449
171, 545.882
172, 546.439
173, 547.119
174, 547.923
175, 548.851
176, 549.902
177, 551.077
178, 552.376
179, 553.798
180, 555.344
181, 557.014
182, 558.807
183, 560.724
184, 562.765
185, 564.929
186, 567.217
187, 569.629
188, 572.165
189, 574.824
190, 577.607
191, 580.513
192, 583.543
193, 585.761
194, 586.697
195, 544.955
196, 544.893
197, 545.140
198, 545.449
199, 545.882
200, 546.439
201, 547.119
202, 547.923
203, 548.851
204, 549.902
205, 551.077
206, 552.376
207, 553.798
208, 555.344
209, 557.014
210, 558.807
211, 560.724
212, 562.765
213, 564.929
214, 567.217
215, 569.629
216, 572.165
217, 574.824
218, 577.607
219, 580.513
220, 583.543
221, 585.761
222, 586.697
223, 544.955
224, 544.893
225, 545.140
226, 545.449
227, 545.882
228, 546.439
229, 547.119
230, 547.923
231, 548.851
232, 549.902
233, 551.077
234, 552.376
235, 553.798
236, 555.344
237, 557.014
238, 558.807
239, 560.724
240, 562.765
241, 564.929
242, 567.217
243, 569.629
244, 572.165
245, 574.824
246, 577.607
247, 580.513
248, 583.543
249, 585.761
250, 586.697
251, 544.955
252, 544.893
253, 545.140
254, 545.449
255, 545.882
256, 546.439
257, 547.119
258, 547.923
259, 548.851
260, 549.902
261, 551.077
262, 552.376
263, 553.798
264, 555.344
265, 557.014
266, 558.807
267, 560.724
268, 562.765
269, 564.929
270, 567.217
271, 569.629
272, 572.165
273, 574.824
274, 577.607
275, 580.513
276, 583.543
277, 585.761
278, 586.697
279, 544.955
280, 544.893
281, 545.140
282, 545.449
283, 545.882
284, 546.439
285, 547.119
286, 547.923
287, 548.851
288, 549.902
289, 551.077
290, 552.376
291, 553.798
292, 555.344
293, 557.014
294, 558.807
295, 560.724
296, 562.765
297, 564.929
298, 567.217
299, 569.629
300, 572.165
301, 574.824
302, 577.607
303, 580.513
304, 583.543
305, 585.761
306, 586.697
307, 544.955
308, 544.893
309, 545.140
310, 545.449
311, 545.882
312, 546.439
313, 547.119
314, 547.923
315, 548.851
316, 549.902
317, 551.077
318, 552.376
319, 553.798
320, 555.344
321, 557.014
322, 558.807
323, 560.724
324, 562.765
325, 564.929
326, 567.217
327, 569.629
328, 572.165
329, 574.824
330, 577.607
331, 580.513
332, 583.543
333, 585.761
334, 586.697
335, 589.975
336, 589.975
337, 544.955
338, 544.893
339, 545.140
340, 545.449
341, 545.882
342, 546.439
343, 547.119
344, 547.923
345, 548.851
346, 549.902
347, 551.077
348, 552.376
349, 553.798
350, 555.344
351, 557.014
352, 558.807
353, 560.724
354, 562.765
355, 564.929
356, 567.217
357, 569.629
358, 572.165
359, 574.824
360, 577.607
361, 580.513
362, 583.543
363, 585.761
364, 586.697
365, 589.975
366, 544.955
367, 544.893
368, 545.140
369, 545.449
370, 545.882
371, 546.439
372, 547.119
373, 547.923
374, 548.851
375, 549.902
376, 551.077
377, 552.376
378, 553.798
379, 555.344
380, 557.014
381, 558.807
382, 560.724
383, 562.765
384, 564.929
385, 567.217
386, 569.629
387, 572.165
388, 574.824
389, 577.607
390, 580.513
391, 583.543
392, 585.761
393, 586.697
394, 589.975
395, 544.955
396, 544.893
397, 545.140
398, 545.449
399, 545.882
400, 546.439
401, 547.119
402, 547.923
403, 548.851
404, 549.902
405, 551.077
406, 552.376
407, 553.798
408, 555.344
409, 557.014
410, 558.807
411, 560.724
412, 562.765
413, 564.929
414, 567.217
415, 569.629
416, 572.165
417, 574.824
418, 577.607
419, 580.513
420, 583.543
421, 585.761
422, 586.697
423, 589.975
424, 544.955
425, 544.893
426, 545.140
427, 545.449
428, 545.882
429, 546.439
430, 547.119
431, 547.923
432, 548.851
433, 549.902
434, 551.077
435, 552.376
436, 553.798
437, 555.344
438, 557.014
439, 558.807
440, 560.724
441, 562.765
442, 564.929
443, 567.217
444, 569.629
445, 572.165
446, 574.824
447, 577.607
448, 580.513
449, 583.543
450, 585.761
451, 586.697
452, 589.975
453, 544.955
454, 544.893
455, 545.140
456, 545.449
457, 545.882
458, 546.439
459, 547.119
460, 547.923
461, 548.851
462, 549.902
463, 551.077
464, 552.376
465, 553.798
466, 555.344
467, 557.014
468, 558.807
469, 560.724
470, 562.765
471, 564.929
472, 567.217
473, 569.629
474, 572.165
475, 574.824
476, 577.607
477, 580.513
478, 583.543
479, 585.761
480, 586.697
481, 589.975
482, 544.955
483, 544.893
484, 545.140
485, 545.449
486, 545.882
487, 546.439
488, 547.119
489, 547.923
490, 548.851
491, 549.902
492, 551.077
493, 552.376
494, 553.798
495, 555.344
496, 557.014
497, 558.807
498, 560.724
499, 562.765
500, 564.929
501, 567.217
502, 569.629
503, 572.165
504, 574.824
505, 577.607
506, 580.513
507, 583.543
508, 585.761
509, 586.697
510, 589.975
511, 544.955
512, 544.893
513, 545.140
514, 545.449
515, 545.882
516, 546.439
517, 547.119
518, 547.923
519, 548.851
520, 549.902
521, 551.077
522, 552.376
523, 553.798
524, 555.344
525, 557.014
526, 558.807
527, 560.724
528, 562.765
529, 564.929
530, 567.217
531, 569.629
532, 572.165
533, 574.824
534, 577.607
535, 580.513
536, 583.543
537, 585.761
538, 586.697
539, 589.975
540, 544.955
541, 544.893
542, 545.140
543, 545.449
544, 545.882
545, 546.439
546, 547.119
547, 547.923
548, 548.851
549, 549.902
550, 551.077
551, 552.376
552, 553.798
553, 555.344
554, 557.014
555, 558.807
556, 560.724
557, 562.765
558, 564.929
559, 567.217
560, 569.629
561, 572.165
562, 574.824
563, 577.607
564, 580.513
565, 583.543
566, 585.761
567, 586.697
568, 589.975
569, 544.955
570, 544.893
571, 545.140
572, 545.449
573, 545.882
574, 546.439
575, 547.119
576, 547.923
577, 548.851
578, 549.902
579, 551.077
580, 552.376
581, 553.798
582, 555.344
583, 557.014
584, 558.807
585, 560.724
586, 562.765
587, 564.929
588, 567.217
589, 569.629
590, 572.165
591, 574.824
592, 577.607
593, 580.513
594, 583.543
595, 585.761
596, 586.697
597, 589.975
598, 544.955
599, 544.893
600, 545.140
601, 545.449
602, 545.882
603, 546.439
604, 547.119
605, 547.923
606, 548.851
607, 549.902
608, 551.077
609, 552.376
610, 553.798
611, 555.344
612, 557.014
613, 558.807
614, 560.724
615, 562.765
616, 564.929
617, 567.217
618, 569.629
619, 572.165
620, 574.824
621, 577.607
622, 580.513
623, 583.543
624, 585.761
625, 586.697
626, 589.975
627, 792.231
628, 798.192
629, 798.192
630, 792.231
631, 806.170
632, 806.170
633, 814.271
634, 814.271
635, 822.496
636, 822.496
637, 830.844
638, 830.844
639, 837.856
640, 837.856
641, 544.955
642, 544.893
643, 545.140
644, 545.449
645, 545.882
646, 546.439
647, 547.119
648, 547.923
649, 548.851
650, 549.902
651, 551.077
652, 552.376
653, 553.798
654, 555.344
655, 557.014
656, 558.807
657, 560.724
658, 562.765
659, 564.929
660, 567.217
661, 569.629
662, 572.165
663, 574.824
664, 577.607
665, 580.513
666, 583.543
667, 585.761
668, 586.697
669, 589.975
670, 782.608
671, 790.338
672, 790.338
673, 782.608
674, 792.231
675, 798.192
676, 806.170
677, 814.271
678, 822.496
679, 830.844
680, 837.856
681, 544.955
682, 544.893
683, 545.140
684, 545.449
685, 545.882
686, 546.439
687, 547.119
688, 547.923
689, 548.851
690, 549.902
691, 551.077
692, 552.376
693, 553.798
694, 555.344
695, 557.014
696, 558.807
697, 560.724
698, 562.765
699, 564.929
700, 567.217
701, 569.629
702, 572.165
703, 574.824
704, 577.607
705, 580.513
706, 583.543
707, 585.761
708, 586.697
709, 589.975
710, 592.367
711, 592.367
712, 775.002
713, 782.608
714, 775.002
715, 790.338
716, 792.231
717, 798.192
718, 806.170
719, 814.271
720, 822.496
721, 830.844
722, 837.856
723, 544.955
724, 544.893
725, 545.140
726, 545.449
727, 545.882
728, 546.439
729, 547.119
730, 547.923
731, 548.851
732, 549.902
733, 551.077
734, 552.376
735, 553.798
736, 555.344
737, 557.014
738, 558.807
739, 560.724
740, 562.765
741, 564.929
742, 567.217
743, 569.629
744, 572.165
745, 574.824
746, 577.607
747, 580.513
748, 583.543
749, 585.761
750, 586.697
751, 589.975
752, 592.367
753, 767.519
754, 775.002
755, 767.519
756, 782.608
757, 790.338
758, 792.231
759, 798.192
760, 806.170
761, 814.271
762, 822.496
763, 830.844
764, 837.856
765, 544.955
766, 544.893
767, 545.140
768, 545.449
769, 545.882
770, 546.439
771, 547.119
772, 547.923
773, 548.851
774, 549.902
775, 551.077
776, 552.376
777, 553.798
778, 555.344
779, 557.014
780, 558.807
781, 560.724
782, 562.765
783, 564.929
784, 567.217
785, 569.629
786, 572.165
787, 574.824
788, 577.607
789, 580.513
790, 583.543
791, 585.761
792, 586.697
793, 589.975
794, 592.367
795, 752.925
796, 760.160
797, 760.160
798, 752.925
799, 767.519
800, 775.002
801, 782.608
802, 790.338
803, 792.231
804, 798.192
805, 806.170
806, 814.271
807, 822.496
808, 830.844
809, 837.856
810, 544.955
811, 544.893
812, 545.140
813, 545.449
814, 545.882
815, 546.439
816, 547.119
817, 547.923
818, 548.851
819, 549.902
820, 551.077
821, 552.376
822, 553.798
823, 555.344
824, 557.014
825, 558.807
826, 560.724
827, 562.765
828, 564.929
829, 567.217
830, 569.629
831, 572.165
832, 574.824
833, 577.607
834, 580.513
835, 583.543
836, 585.761
837, 586.697
838, 589.975
839, 592.367
840, 745.813
841, 752.925
842, 745.813
843, 760.160
844, 767.519
845, 775.002
846, 782.608
847, 790.338
848, 792.231
849, 798.192
850, 806.170
851, 814.271
852, 822.496
853, 830.844
854, 837.856
855, 544.955
856, 544.893
857, 545.140
858, 545.449
859, 545.882
860, 546.439
861, 547.119
862, 547.923
863, 548.851
864, 549.902
865, 551.077
866, 552.376
867, 553.798
868, 555.344
869, 557.014
870, 558.807
871, 560.724
872, 562.765
873, 564.929
874, 567.217
875, 569.629
876, 572.165
877, 574.824
878, 577.607
879, 580.513
880, 583.543
881, 585.761
882, 586.697
883, 589.975
884, 592.367
885, 738.825
886, 745.813
887, 738.825
888, 752.925
889, 760.160
890, 767.519
891, 775.002
892, 782.608
893, 790.338
894, 792.231
895, 798.192
896, 806.170
897, 814.271
898, 822.496
899, 830.844
900, 837.856
901, 544.955
902, 544.893
903, 545.140
904, 545.449
905, 545.882
906, 546.439
907, 547.119
908, 547.923
909, 548.851
910, 549.902
911, 551.077
912, 552.376
913, 553.798
914, 555.344
915, 557.014
916, 558.807
917, 560.724
918, 562.765
919, 564.929
920, 567.217
921, 569.629
922, 572.165
923, 574.824
924, 577.607
925, 580.513
926, 583.543
927, 585.761
928, 586.697
929, 589.975
930, 592.367
931, 593.376
932, 593.376
933, 596.901
934, 596.901
935, 600.549
936, 600.549
937, 604.322
938, 604.322
939, 608.218
940, 608.218
941, 612.237
942, 612.237
943, 616.381
944, 616.381
945, 620.648
946, 620.648
947, 625.038
948, 625.038
949, 629.553
950, 629.553
951, 634.191
952, 634.191
953, 638.953
954, 638.953
955, 643.838
956, 643.838
957, 648.847
958, 648.847
959, 653.980
960, 653.980
961, 659.236
962, 659.236
963, 664.616
964, 664.616
965, 670.120
966, 670.120
967, 675.748
968, 675.748
969, 681.499
970, 681.499
971, 687.374
972, 687.374
973, 693.372
974, 693.372
975, 699.494
976, 699.494
977, 705.740
978, 705.740
979, 712.110
980, 712.110
981, 718.603
982, 718.603
983, 725.220
984, 725.220
985, 731.030
986, 731.030
987, 731.961
988, 731.961
989, 738.825
990, 745.813
991, 752.925
992, 760.160
993, 767.519
994, 775.002
995, 782.608
996, 790.338
997, 792.231
998, 798.192
999, 806.170
1000, 814.271
1001, 822.496
1002, 830.844
1003, 837.856
1004, 544.955
1005, 544.893
1006, 545.140
1007, 545.449
1008, 545.882
1009, 546.439
1010, 547.119
1011, 547.923
1012, 548.851
1013, 549.902
1014, 551.077
1015, 552.376
1016, 553.798
1017, 555.344
1018, 557.014
1019, 558.807
1020, 560.724
1021, 562.765
1022, 564.929
1023, 567.217
1024, 569.629
1025, 572.165
1026, 574.824
1027, 577.607
1028, 580.513
1029, 583.543
1030, 585.761
1031, 586.697
1032, 589.975
1033, 592.367
1034, 593.376
1035, 596.901
1036, 600.549
1037, 604.322
1038, 608.218
1039, 612.237
1040, 616.381
1041, 620.648
1042, 625.038
1043, 629.553
1044, 634.191
1045, 638.953
1046, 643.838
1047, 648.847
1048, 653.980
1049, 659.236
1050, 664.616
1051, 670.120
1052, 675.748
1053, 681.499
1054, 687.374
1055, 693.372
1056, 699.494
1057, 705.740
1058, 712.110
1059, 718.603
1060, 725.220
1061, 731.030
1062, 731.961
1063, 738.825
1064, 745.813
1065, 752.925
1066, 760.160
1067, 767.519
1068, 775.002
1069, 782.608
1070, 790.338
1071, 792.231
1072, 798.192
1073, 806.170
1074, 814.271
1075, 822.496
1076, 830.844
1077, 837.856
1078, 544.955
1079, 544.893
1080, 545.140
1081, 545.449
1082, 545.882
1083, 546.439
1084, 547.119
1085, 547.923
1086, 548.851
1087, 549.902
1088, 551.077
1089, 552.376
1090, 553.798
1091, 555.344
1092, 557.014
1093, 558.807
1094, 560.724
1095, 562.765
1096, 564.929
1097, 567.217
1098, 569.629
1099, 572.165
1100, 574.824
1101, 577.607
1102, 580.513
1103, 583.543
1104, 585.761
1105, 586.697
1106, 589.975
1107, 592.367
1108, 593.376
1109, 596.901
1110, 600.549
1111, 604.322
1112, 608.218
1113, 612.237
1114, 616.381
1115, 620.648
1116, 625.038
1117, 629.553
1118, 634.191
1119, 638.953
1120, 643.838
1121, 648.847
1122, 653.980
1123, 659.236
1124, 664.616
1125, 670.120
1126, 675.748
1127, 681.499
1128, 687.374
1129, 693.372
1130, 699.494
1131, 705.740
1132, 712.110
1133, 718.603
1134, 725.220
1135, 731.030
1136, 731.961
1137, 738.825
1138, 745.813
1139, 752.925
1140, 760.160
1141, 767.519
1142, 775.002
1143, 782.608
1144, 790.338
1145, 792.231
1146, 798.192
1147, 806.170
1148, 814.271
1149, 822.496
1150, 830.844
1151, 837.856
1152, 544.955
1153, 544.893
1154, 545.140
1155, 545.449
1156, 545.882
1157, 546.439
1158, 547.119
1159, 547.923
1160, 548.851
1161, 549.902
1162, 551.077
1163, 552.376
1164, 553.798
1165, 555.344
1166, 557.014
1167, 558.807
1168, 560.724
1169, 562.765
1170, 564.929
1171, 567.217
1172, 569.629
1173, 572.165
1174, 574.824
1175, 577.607
1176, 580.513
1177, 583.543
1178, 585.761
1179, 586.697
1180, 589.975
1181, 592.367
1182, 593.376
1183, 596.901
1184, 600.549
1185, 604.322
1186, 608.218
1187, 612.237
1188, 616.381
1189, 620.648
1190, 625.038
1191, 629.553
1192, 634.191
1193, 638.953
1194, 643.838
1195, 648.847
1196, 653.980
1197, 659.236
1198, 664.616
1199, 670.120
1200, 675.748
1201, 681.499
1202, 687.374
1203, 693.372
1204, 699.494
1205, 705.740
1206, 712.110
1207, 718.603
1208, 725.220
1209, 731.030
1210, 731.961
1211, 738.825
1212, 745.813
1213, 752.925
1214, 760.160
1215, 767.519
1216, 775.002
1217, 782.608
1218, 790.338
1219, 792.231
1220, 798.192
1221, 806.170
1222, 814.271
1223, 822.496
1224, 830.844
1225, 837.856
1226, 544.955
1227, 544.893
1228, 545.140
1229, 545.449
1230, 545.882
1231, 546.439
1232, 547.119
1233, 547.923
1234, 548.851
1235, 549.902
1236, 551.077
1237, 552.376
1238, 553.798
1239, 555.344
1240, 557.014
1241, 558.807
1242, 560.724
1243, 562.765
1244, 564.929
1245, 567.217
1246, 569.629
1247, 572.165
1248, 574.824
1249, 577.607
1250, 580.513
1251, 583.543
1252, 585.761
1253, 586.697
1254, 589.975
1255, 592.367
1256, 593.376
1257, 596.901
1258, 600.549
1259, 604.322
1260, 608.218
1261, 612.237
1262, 616.381
1263, 620.648
1264, 625.038
1265, 629.553
1266, 634.191
1267, 638.953
1268, 643.838
1269, 648.847
1270, 653.980
1271, 659.236
1272, 664.616
1273, 670.120
1274, 675.748
1275, 681.499
1276, 687.374
1277, 693.372
1278, 699.494
1279, 705.740
1280, 712.110
1281, 718.603
1282, 725.220
1283, 731.030
1284, 731.961
1285, 738.825
1286, 745.813
1287, 752.925
1288, 760.160
1289, 767.519
1290, 775.002
1291, 782.608
1292, 790.338
1293, 792.231
1294, 798.192
1295, 806.170
1296, 814.271
1297, 822.496
1298, 830.844
1299, 837.856
1300, 544.955
1301, 544.893
1302, 545.140
1303, 545.449
1304, 545.882
1305, 546.439
1306, 547.119
1307, 547.923
1308, 548.851
1309, 549.902
1310, 551.077
1311, 552.376
1312, 553.798
1313, 555.344
1314, 557.014
1315, 558.807
1316, 560.724
1317, 562.765
1318, 564.929
1319, 567.217
1320, 569.629
1321, 572.165
1322, 574.824
1323, 577.607
1324, 580.513
1325, 583.543
1326, 585.761
1327, 586.697
1328, 589.975
1329, 592.367
1330, 593.376
1331, 596.901
1332, 600.549
1333, 604.322
1334, 608.218
1335, 612.237
1336, 616.381
1337, 620.648
1338, 625.038
1339, 629.553
1340, 634.191
1341, 638.953
1342, 643.838
1343, 648.847
1344, 653.980
1345, 659.236
1346, 664.616
1347, 670.120
1348, 675.748
1349, 681.499
1350, 687.374
1351, 693.372
1352, 699.494
1353, 705.740
1354, 712.110
1355, 718.603
1356, 725.220
1357, 731.030
1358, 731.961
1359, 738.825
1360, 745.813
1361, 752.925
1362, 760.160
1363, 767.519
1364, 775.002
1365, 782.608
1366, 790.338
1367, 792.231
1368, 798.192
1369, 806.170
1370, 814.271
1371, 822.496
1372, 830.844
1373, 837.856
1374, 544.955
1375, 544.893
1376, 545.140
1377, 545.449
1378, 545.882
1379, 546.439
1380, 547.119
1381, 547.923
1382, 548.851
1383, 549.902
1384, 551.077
1385, 552.376
1386, 553.798
1387, 555.344
1388, 557.014
1389, 558.807
1390, 560.724
1391, 562.765
1392, 564.929
1393, 567.217
1394, 569.629
1395, 572.165
1396, 574.824
1397, 577.607
1398, 580.513
1399, 583.543
1400, 585.761
1401, 586.697
1402, 589.975
1403, 592.367
1404, 593.376
1405, 596.901
1406, 600.549
1407, 604.322
1408, 608.218
1409, 612.237
1410, 616.381
1411, 620.648
1412, 625.038
1413, 629.553
1414, 634.191
1415, 638.953
1416, 643.838
1417, 648.847
1418, 653.980
1419, 659.236
1420, 664.616
1421, 670.120
1422, 675.748
1423, 681.499
1424, 687.374
1425, 693.372
1426, 699.494
1427, 705.740
1428, 712.110
1429, 718.603
1430, 725.220
1431, 731.030
1432, 731.961
1433, 738.825
1434, 745.813
1435, 752.925
1436, 760.160
1437, 767.519
1438, 775.002
1439, 782.608
1440, 790.338
1441, 792.231
1442, 798.192
1443, 806.170
1444, 814.271
1445, 822.496
1446, 830.844
1447, 837.856
1448, 544.955
1449, 544.893
1450, 545.140
1451, 545.449
1452, 545.882
1453, 546.439
1454, 547.119
1455, 547.923
1456, 548.851
1457, 549.902
1458, 551.077
1459, 552.376
1460, 553.798
1461, 555.344
1462, 557.014
1463, 558.807
1464, 560.724
1465, 562.765
1466, 564.929
1467, 567.217
1468, 569.629
1469, 572.165
1470, 574.824
1471, 577.607
1472, 580.513
1473, 583.543
1474, 585.761
1475, 586.697
1476, 589.975
1477, 592.367
1478, 593.376
1479, 596.901
1480, 600.549
1481, 604.322
1482, 608.218
1483, 612.237
1484, 616.381
1485, 620.648
1486, 625.038
1487, 629.553
1488, 634.191
1489, 638.953
1490, 643.838
1491, 648.847
1492, 653.980
1493, 659.236
1494, 664.616
1495, 670.120
1496, 675.748
1497, 681.499
1498, 687.374
1499, 693.372
1500, 699.494
1501, 705.740
1502, 712.110
1503, 718.603
1504, 725.220
1505, 731.030
1506, 731.961
1507, 738.825
1508, 745.813
1509, 752.925
1510, 760.160
1511, 767.519
1512, 775.002
1513, 782.608
1514, 790.338
1515, 792.231
1516, 798.192
1517, 806.170
1518, 814.271
1519, 822.496
1520, 830.844
1521, 837.856
1522, 544.955
1523, 544.893
1524, 545.140
1525, 545.449
1526, 545.882
1527, 546.439
1528, 547.119
1529, 547.923
1530, 548.851
1531, 549.902
1532, 551.077
1533, 552.376
1534, 553.798
1535, 555.344
1536, 557.014
1537, 558.807
1538, 560.724
1539, 562.765
1540, 564.929
1541, 567.217
1542, 569.629
1543, 572.165
1544, 574.824
1545, 577.607
1546, 580.513
1547, 583.543
1548, 585.761
1549, 586.697
1550, 589.975
1551, 592.367
1552, 593.376
1553, 596.901
1554, 600.549
1555, 604.322
1556, 608.218
1557, 612.237
1558, 616.381
1559, 620.648
1560, 625.038
1561, 629.553
1562, 634.191
1563, 638.953
1564, 643.838
1565, 648.847
1566, 653.980
1567, 659.236
1568, 664.616
1569, 670.120
1570, 675.748
1571, 681.499
1572, 687.374
1573, 693.372
1574, 699.494
1575, 705.740
1576, 712.110
1577, 718.603
1578, 725.220
1579, 731.030
1580, 731.961
1581, 738.825
1582, 745.813
1583, 752.925
1584, 760.160
1585, 767.519
1586, 775.002
1587, 782.608
1588, 790.338
1589, 792.231
1590, 798.192
1591, 806.170
1592, 814.271
1593, 822.496
1594, 830.844
1595, 837.856
1596, 544.955
1597, 544.893
1598, 545.140
1599, 545.449
1600, 545.882
1601, 546.439
1602, 547.119
1603, 547.923
1604, 548.851
1605, 549.902
1606, 551.077
1607, 552.376
1608, 553.798
1609, 555.344
1610, 557.014
1611, 558.807
1612, 560.724
1613, 562.765
1614, 564.929
1615, 567.217
1616, 569.629
1617, 572.165
1618, 574.824
1619, 577.607
1620, 580.513
1621, 583.543
1622, 585.761
1623, 586.697
1624, 589.975
1625, 592.367
1626, 593.376
1627, 596.901
1628, 600.549
1629, 604.322
1630, 608.218
1631, 612.237
1632, 616.381
1633, 620.648
1634, 625.038
1635, 629.553
1636, 634.191
1637, 638.953
1638, 643.838
1639, 648.847
1640, 653.980
1641, 659.236
1642, 664.616
1643, 670.120
1644, 675.748
1645, 681.499
1646, 687.374
1647, 693.372
1648, 699.494
1649, 705.740
1650, 712.110
1651, 718.603
1652, 725.220
1653, 731.030
1654, 731.961
1655, 738.825
1656, 745.813
1657, 752.925
1658, 760.160
1659, 767.519
1660, 775.002
1661, 782.608
1662, 790.338
1663, 792.231
1664, 798.192
1665, 806.170
1666, 814.271
1667, 822.496
1668, 830.844
1669, 837.856
1670, 544.955
1671, 544.893
1672, 545.140
1673, 545.449
1674, 545.882
1675, 546.439
1676, 547.119
1677, 547.923
1678, 548.851
1679, 549.902
1680, 551.077
1681, 552.376
1682, 553.798
1683, 555.344
1684, 557.014
1685, 558.807
1686, 560.724
1687, 562.765
1688, 564.929
1689, 567.217
1690, 569.629
1691, 572.165
1692, 574.824
1693, 577.607
1694, 580.513
1695, 583.543
1696, 585.761
1697, 586.697
1698, 589.975
1699, 592.367
1700, 593.376
1701, 596.901
1702, 600.549
1703, 604.322
1704, 608.218
1705, 612.237
1706, 616.381
1707, 620.648
1708, 625.038
1709, 629.553
1710, 634.191
1711, 638.953
1712, 643.838
1713, 648.847
1714, 653.980
1715, 659.236
1716, 664.616
1717, 670.120
1718, 675.748
1719, 681.499
1720, 687.374
1721, 693.372
1722, 699.494
1723, 705.740
1724, 712.110
1725, 718.603
1726, 725.220
1727, 731.030
1728, 731.961
1729, 738.825
1730, 745.813
1731, 752.925
1732, 760.160
1733, 767.519
1734, 775.002
1735, 782.608
1736, 790.338
1737, 792.231
1738, 798.192
1739, 806.170
1740, 814.271
1741, 822.496
1742, 830.844
1743, 837.856
1744, 544.955
1745, 544.893
1746, 545.140
1747, 545.449
1748, 545.882
1749, 546.439
1750, 547.119
1751, 547.923
1752, 548.851
1753, 549.902
1754, 551.077
1755, 552.376
1756, 553.798
1757, 555.344
1758, 557.014
1759, 558.807
1760, 560.724
1761, 562.765
1762, 564.929
1763, 567.217
1764, 569.629
1765, 572.165
1766, 574.824
1767, 577.607
1768, 580.513
1769, 583.543
1770, 585.761
1771, 586.697
1772, 589.975
1773, 592.367
1774, 593.376
1775, 596.901
1776, 600.549
1777, 604.322
1778, 608.218
1779, 612.237
1780, 616.381
1781, 620.648
1782, 625.038
1783, 629.553
1784, 634.191
1785, 638.953
1786, 643.838
1787, 648.847
1788, 653.980
1789, 659.236
1790, 664.616
1791, 670.120
1792, 675.748
1793, 681.499
1794, 687.374
1795, 693.372
1796, 699.494
1797, 705.740
1798, 712.110
1799, 718.603
1800, 725.220
1801, 731.030
1802, 731.961
1803, 738.825
1804, 745.813
1805, 752.925
1806, 760.160
1807, 767.519
1808, 775.002
1809, 782.608
1810, 790.338
1811, 792.231
1812, 798.192
1813, 806.170
1814, 814.271
1815, 822.496
1816, 830.844
1817, 837.856
1818, 544.955
1819, 544.893
1820, 545.140
1821, 545.449
1822, 545.882
1823, 546.439
1824, 547.119
1825, 547.923
1826, 548.851
1827, 549.902
1828, 551.077
1829, 552.376
1830, 553.798
1831, 555.344
1832, 557.014
1833, 558.807
1834, 560.724
1835, 562.765
1836, 564.929
1837, 567.217
1838, 569.629
1839, 572.165
1840, 574.824
1841, 577.607
1842, 580.513
1843, 583.543
1844, 585.761
1845, 586.697
1846, 589.975
1847, 592.367
1848, 593.376
1849, 596.901
1850, 600.549
1851, 604.322
1852, 608.218
1853, 612.237
1854, 616.381
1855, 620.648
1856, 625.038
1857, 629.553
1858, 634.191
1859, 638.953
1860, 643.838
1861, 648.847
1862, 653.980
1863, 659.236
1864, 664.616
1865, 670.120
1866, 675.748
1867, 681.499
1868, 687.374
1869, 693.372
1870, 699.494
1871, 705.740
1872, 712.110
1873, 718.603
1874, 725.220
1875, 731.030
1876, 731.961
1877, 738.825
1878, 745.813
1879, 752.925
1880, 760.160
1881, 767.519
1882, 775.002
1883, 782.608
1884, 790.338
1885, 792.231
1886, 798.192
1887, 806.170
1888, 814.271
1889, 822.496
1890, 830.844
1891, 837.856
1892, 544.955
1893, 544.893
1894, 545.140
1895, 545.449
1896, 545.882
1897, 546.439
1898, 547.119
1899, 547.923
1900, 548.851
1901, 549.902
1902, 551.077
1903, 552.376
1904, 553.798
1905, 555.344
1906, 557.014
1907, 558.807
1908, 560.724
1909, 562.765
1910, 564.929
1911, 567.217
1912, 569.629
1913, 572.165
1914, 574.824
1915, 577.607
1916, 580.513
1917, 583.543
1918, 585.761
1919, 586.697
1920, 589.975
1921, 592.367
1922, 593.376
1923, 596.901
1924, 600.549
1925, 604.322
1926, 608.218
1927, 612.237
1928, 616.381
1929, 620.648
1930, 625.038
1931, 629.553
1932, 634.191
1933, 638.953
1934, 643.838
1935, 648.847
1936, 653.980
1937, 659.236
1938, 664.616
1939, 670.120
1940, 675.748
1941, 681.499
1942, 687.374
1943, 693.372
1944, 699.494
1945, 705.740
1946, 712.110
1947, 718.603
1948, 725.220
1949, 731.030
1950, 731.961
1951, 738.825
1952, 745.813
1953, 752.925
1954, 760.160
1955, 767.519
1956, 775.002
1957, 782.608
1958, 790.338
1959, 792.231
1960, 798.192
1961, 806.170
1962, 814.271
1963, 822.496
1964, 830.844
1965, 837.856
1966, 544.955
1967, 544.893
1968, 545.140
1969, 545.449
1970, 545.882
1971, 546.439
1972, 547.119
1973, 547.923
1974, 548.851
1975, 549.902
1976, 551.077
1977, 552.376
1978, 553.798
1979, 555.344
1980, 557.014
1981, 558.807
1982, 560.724
1983, 562.765
1984, 564.929
1985, 567.217
1986, 569.629
1987, 572.165
1988, 574.824
1989, 577.607
1990, 580.513
1991, 583.543
1992, 585.761
1993, 586.697
1994, 589.975
1995, 592.367
1996, 593.376
1997, 596.901
1998, 600.549
1999, 604.322
2000, 608.218
2001, 612.237
2002, 616.381
2003, 620.648
2004, 625.038
2005, 629.553
2006, 634.191
2007, 638.953
2008, 643.838
2009, 648.847
2010, 653.980
2011, 659.236
2012, 664.616
2013, 670.120
2014, 675.748
2015, 681.499
2016, 687.374
2017, 693.372
2018, 699.494
2019, 705.740
2020, 712.110
2021, 718.603
2022, 725.220
2023, 731.030
2024, 731.961
2025, 738.825
2026, 745.813
2027, 752.925
2028, 760.160
2029, 767.519
2030, 775.002
2031, 782.608
2032, 790.338
2033, 792.231
2034, 798.192
2035, 806.170
2036, 814.271
2037, 822.496
2038, 830.844
2039, 837.856
2040, 544.955
2041, 544.893
2042, 545.140
2043, 545.449
2044, 545.882
2045, 546.439
2046, 547.119
2047, 547.923
2048, 548.851
2049, 549.902
2050, 551.077
2051, 552.376
2052, 553.798
2053, 555.344
2054, 557.014
2055, 558.807
2056, 560.724
2057, 562.765
2058, 564.929
2059, 567.217
2060, 569.629
2061, 572.165
2062, 574.824
2063, 577.607
2064, 580.513
2065, 583.543
2066, 585.761
2067, 586.697
2068, 589.975
2069, 592.367
2070, 593.376
2071, 596.901
2072, 600.549
2073, 604.322
2074, 608.218
2075, 612.237
2076, 616.381
2077, 620.648
2078, 625.038
2079, 629.553
2080, 634.191
2081, 638.953
2082, 643.838
2083, 648.847
2084, 653.980
2085, 659.236
2086, 664.616
2087, 670.120
2088, 675.748
2089, 681.499
2090, 687.374
2091, 693.372
2092, 699.494
2093, 705.740
2094, 712.110
2095, 718.603
2096, 725.220
2097, 731.030
2098, 731.961
2099, 738.825
2100, 745.813
2101, 752.925
2102, 760.160
2103, 767.519
2104, 775.002
2105, 782.608
2106, 790.338
2107, 792.231
2108, 798.192
2109, 806.170
2110, 814.271
2111, 822.496
2112, 830.844
2113, 837.856
2114, 544.955
2115, 544.893
2116, 545.140
2117, 545.449
2118, 545.882
2119, 546.439
2120, 547.119
2121, 547.923
2122, 548.851
2123, 549.902
2124, 551.077
2125, 552.376
2126, 553.798
2127, 555.344
2128, 557.014
2129, 558.807
2130, 560.724
2131, 562.765
2132, 564.929
2133, 567.217
2134, 569.629
2135, 572.165
2136, 574.824
2137, 577.607
2138, 580.513
2139, 583.543
2140, 585.761
2141, 586.697
2142, 589.975
2143, 592.367
2144, 593.376
2145, 596.901
2146, 600.549
2147, 604.322
2148, 608.218
2149, 612.237
2150, 616.381
2151, 620.648
2152, 625.038
2153, 629.553
2154, 634.191
2155, 638.953
2156, 643.838
2157, 648.847
2158, 653.980
2159, 659.236
2160, 664.616
2161, 670.120
2162, 675.748
2163, 681.499
2164, 687.374
2165, 693.372
2166, 699.494
2167, 705.740
2168, 712.110
2169, 718.603
2170, 725.220
2171, 731.030
2172, 731.961
2173, 738.825
2174, 745.813
2175, 752.925
2176, 760.160
2177, 767.519
2178, 775.002
2179, 782.608
2180, 790.338
2181, 792.231
2182, 798.192
2183, 806.170
2184, 814.271
2185, 822.496
2186, 830.844
2187, 837.856
2188, 544.955
2189, 544.893
2190, 545.140
2191, 545.449
2192, 545.882
2193, 546.439
2194, 547.119
2195, 547.923
2196, 548.851
2197, 549.902
2198, 551.077
2199, 552.376
2200, 553.798
2201, 555.344
2202, 557.014
2203, 558.807
2204, 560.724
2205, 562.765
2206, 564.929
2207, 567.217
2208, 569.629
2209, 572.165
2210, 574.824
2211, 577.607
2212, 580.513
2213, 583.543
2214, 585.761
2215, 586.697
2216, 589.975
2217, 592.367
2218, 593.376
2219, 596.901
2220, 600.549
2221, 604.322
2222, 608.218
2223, 612.237
2224, 616.381
2225, 620.648
2226, 625.038
2227, 629.553
2228, 634.191
2229, 638.953
2230, 643.838
2231, 648.847
2232, 653.980
2233, 659.236
2234, 664.616
2235, 670.120
2236, 675.748
2237, 681.499
2238, 687.374
2239, 693.372
2240, 699.494
2241, 705.740
2242, 712.110
2243, 718.603
2244, 725.220
2245, 731.030
2246, 731.961
2247, 738.825
2248, 745.813
2249, 752.925
2250, 760.160
2251, 767.519
2252, 775.002
2253, 782.608
2254, 790.338
2255, 792.231
2256, 798.192
2257, 806.170
2258, 814.271
2259, 822.496
2260, 830.844
2261, 837.856
2262, 544.955
2263, 544.893
2264, 545.140
2265, 545.449
2266, 545.882
2267, 546.439
2268, 547.119
2269, 547.923
2270, 548.851
2271, 549.902
2272, 551.077
2273, 552.376
2274, 553.798
2275, 555.344
2276, 557.014
2277, 558.807
2278, 560.724
2279, 562.765
2280, 564.929
2281, 567.217
2282, 569.629
2283, 572.165
2284, 574.824
2285, 577.607
2286, 580.513
2287, 583.543
2288, 585.761
2289, 586.697
2290, 589.975
2291, 592.367
2292, 593.376
2293, 596.901
2294, 600.549
2295, 604.322
2296, 608.218
2297, 612.237
2298, 616.381
2299, 620.648
2300, 625.038
2301, 629.553
2302, 634.191
2303, 638.953
2304, 643.838
2305, 648.847
2306, 653.980
2307, 659.236
2308, 664.616
2309, 670.120
2310, 675.748
2311, 681.499
2312, 687.374
2313, 693.372
2314, 699.494
2315, 705.740
2316, 712.110
2317, 718.603
2318, 725.220
2319, 731.030
2320, 731.961
2321, 738.825
2322, 745.813
2323, 752.925
2324, 760.160
2325, 767.519
2326, 775.002
2327, 782.608
2328, 790.338
2329, 792.231
2330, 798.192
2331, 806.170
2332, 814.271
2333, 822.496
2334, 830.844
2335, 837.856
2336, 544.955
2337, 544.893
2338, 545.140
2339, 545.449
2340, 545.882
2341, 546.439
2342, 547.119
2343, 547.923
2344, 548.851
2345, 549.902
2346, 551.077
2347, 552.376
2348, 553.798
2349, 555.344
2350, 557.014
2351, 558.807
2352, 560.724
2353, 562.765
2354, 564.929
2355, 567.217
2356, 569.629
2357, 572.165
2358, 574.824
2359, 577.607
2360, 580.513
2361, 583.543
2362, 585.761
2363, 586.697
2364, 589.975
2365, 592.367
2366, 593.376
2367, 596.901
2368, 600.549
2369, 604.322
2370, 608.218
2371, 612.237
2372, 616.381
2373, 620.648
2374, 625.038
2375, 629.553
2376, 634.191
2377, 638.953
2378, 643.838
2379, 648.847
2380, 653.980
2381, 659.236
2382, 664.616
2383, 670.120
2384, 675.748
2385, 681.499
2386, 687.374
2387, 693.372
2388, 699.494
2389, 705.740
2390, 712.110
2391, 718.603
2392, 725.220
2393, 731.030
2394, 731.961
2395, 738.825
2396, 745.813
2397, 752.925
2398, 760.160
2399, 767.519
2400, 775.002
2401, 782.608
2402, 790.338
2403, 792.231
2404, 798.192
2405, 806.170
2406, 814.271
2407, 822.496
2408, 830.844
2409, 837.856
2410, 544.955
2411, 544.893
2412, 545.140
2413, 545.449
2414, 545.882
2415, 546.439
2416, 547.119
2417, 547.923
2418, 548.851
2419, 549.902
2420, 551.077
2421, 552.376
2422, 553.798
2423, 555.344
2424, 557.014
2425, 558.807
2426, 560.724
2427, 562.765
2428, 564.929
2429, 567.217
2430, 569.629
2431, 572.165
2432, 574.824
2433, 577.607
2434, 580.513
2435, 583.543
2436, 585.761
2437, 586.697
2438, 589.975
2439, 592.367
2440, 593.376
2441, 596.901
2442, 600.549
2443, 604.322
2444, 608.218
2445, 612.237
2446, 616.381
2447, 620.648
2448, 625.038
2449, 629.553
2450, 634.191
2451, 638.953
2452, 643.838
2453, 648.847
2454, 653.980
2455, 659.236
2456, 664.616
2457, 670.120
2458, 675.748
2459, 681.499
2460, 687.374
2461, 693.372
2462, 699.494
2463, 705.740
2464, 712.110
2465, 718.603
2466, 725.220
2467, 731.030
2468, 731.961
2469, 738.825
2470, 745.813
2471, 752.925
2472, 760.160
2473, 767.519
2474, 775.002
2475, 782.608
2476, 790.338
2477, 792.231
2478, 798.192
2479, 806.170
2480, 814.271
2481, 822.496
2482, 830.844
2483, 837.856
2484, 544.955
2485, 544.893
2486, 545.140
2487, 545.449
2488, 545.882
2489, 546.439
2490, 547.119
2491, 547.923
2492, 548.851
2493, 549.902
2494, 551.077
2495, 552.376
2496, 553.798
2497, 555.344
2498, 557.014
2499, 558.807
2500, 560.724
2501, 562.765
2502, 564.929
2503, 567.217
2504, 569.629
2505, 572.165
2506, 574.824
2507, 577.607
2508, 580.513
2509, 583.543
2510, 585.761
2511, 586.697
2512, 589.975
2513, 592.367
2514, 593.376
2515, 596.901
2516, 600.549
2517, 604.322
2518, 608.218
2519, 612.237
2520, 616.381
2521, 620.648
2522, 625.038
2523, 629.553
2524, 634.191
2525, 638.953
2526, 643.838
2527, 648.847
2528, 653.980
2529, 659.236
2530, 664.616
2531, 670.120
2532, 675.748
2533, 681.499
2534, 687.374
2535, 693.372
2536, 699.494
2537, 705.740
2538, 712.110
2539, 718.603
2540, 725.220
2541, 731.030
2542, 731.961
2543, 738.825
2544, 745.813
2545, 752.925
2546, 760.160
2547, 767.519
2548, 775.002
2549, 782.608
2550, 790.338
2551, 792.231
2552, 798.192
2553, 806.170
2554, 814.271
2555, 822.496
2556, 830.844
2557, 837.856
2558, 544.955
2559, 544.893
2560, 545.140
2561, 545.449
2562, 545.882
2563, 546.439
2564, 547.119
2565, 547.923
2566, 548.851
2567, 549.902
2568, 551.077
2569, 552.376
2570, 553.798
2571, 555.344
2572, 557.014
2573, 558.807
2574, 560.724
2575, 562.765
2576, 564.929
2577, 567.217
2578, 569.629
2579, 572.165
2580, 574.824
2581, 577.607
2582, 580.513
2583, 583.543
2584, 585.761
2585, 586.697
2586, 589.975
2587, 592.367
2588, 593.376
2589, 596.901
2590, 600.549
2591, 604.322
2592, 608.218
2593, 612.237
2594, 616.381
2595, 620.648
2596, 625.038
2597, 629.553
2598, 634.191
2599, 638.953
2600, 643.838
2601, 648.847
2602, 653.980
2603, 659.236
2604, 664.616
2605, 670.120
2606, 675.748
2607, 681.499
2608, 687.374
2609, 693.372
2610, 699.494
2611, 705.740
2612, 712.110
2613, 718.603
2614, 725.220
2615, 731.030
2616, 731.961
2617, 738.825
2618, 745.813
2619, 752.925
2620, 760.160
2621, 767.519
2622, 775.002
2623, 782.608
2624, 790.338
2625, 792.231
2626, 798.192
2627, 806.170
2628, 814.271
2629, 822.496
2630, 830.844
2631, 837.856
2632, 544.955
2633, 544.893
2634, 545.140
2635, 545.449
2636, 545.882
2637, 546.439
2638, 547.119
2639, 547.923
2640, 548.851
2641, 549.902
2642, 551.077
2643, 552.376
2644, 553.798
2645, 555.344
2646, 557.014
2647, 558.807
2648, 560.724
2649, 562.765
2650, 564.929
2651, 567.217
2652, 569.629
2653, 572.165
2654, 574.824
2655, 577.607
2656, 580.513
2657, 583.543
2658, 585.761
2659, 586.697
2660, 589.975
2661, 592.367
2662, 593.376
2663, 596.901
2664, 600.549
2665, 604.322
2666, 608.218
2667, 612.237
2668, 616.381
2669, 620.648
2670, 625.038
2671, 629.553
2672, 634.191
2673, 638.953
2674, 643.838
2675, 648.847
2676, 653.980
2677, 659.236
2678, 664.616
2679, 670.120
2680, 675.748
2681, 681.499
2682, 687.374
2683, 693.372
2684, 699.494
2685, 705.740
2686, 712.110
2687, 718.603
2688, 725.220
2689, 731.030
2690, 731.961
2691, 738.825
2692, 745.813
2693, 752.925
2694, 760.160
2695, 767.519
2696, 775.002
2697, 782.608
2698, 790.338
2699, 792.231
2700, 798.192
2701, 806.170
2702, 814.271
2703, 822.496
2704, 830.844
2705, 837.856
2706, 544.955
2707, 544.893
2708, 545.140
2709, 545.449
2710, 545.882
2711, 546.439
2712, 547.119
2713, 547.923
2714, 548.851
2715, 549.902
2716, 551.077
2717, 552.376
2718, 553.798
2719, 555.344
2720, 557.014
2721, 558.807
2722, 560.724
2723, 562.765
2724, 564.929
2725, 567.217
2726, 569.629
2727, 572.165
2728, 574.824
2729, 577.607
2730, 580.513
2731, 583.543
2732, 585.761
2733, 586.697
2734, 589.975
2735, 592.367
2736, 593.376
2737, 596.901
2738, 600.549
2739, 604.322
2740, 608.218
2741, 612.237
2742, 616.381
2743, 620.648
2744, 625.038
2745, 629.553
2746, 634.191
2747, 638.953
2748, 643.838
2749, 648.847
2750, 653.980
2751, 659.236
2752, 664.616
2753, 670.120
2754, 675.748
2755, 681.499
2756, 687.374
2757, 693.372
2758, 699.494
2759, 705.740
2760, 712.110
2761, 718.603
2762, 725.220
2763, 731.030
2764, 731.961
2765, 738.825
2766, 745.813
2767, 752.925
2768, 760.160
2769, 767.519
2770, 775.002
2771, 782.608
2772, 790.338
2773, 792.231
2774, 798.192
2775, 806.170
2776, 814.271
2777, 822.496
2778, 830.844
2779, 837.856
2780, 544.955
2781, 544.893
2782, 545.140
2783, 545.449
2784, 545.882
2785, 546.439
2786, 547.119
2787, 547.923
2788, 548.851
2789, 549.902
2790, 551.077
2791, 552.376
2792, 553.798
2793, 555.344
2794, 557.014
2795, 558.807
2796, 560.724
2797, 562.765
2798, 564.929
2799, 567.217
2800, 569.629
2801, 572.165
2802, 574.824
2803, 577.607
2804, 580.513
2805, 583.543
2806, 585.761
2807, 586.697
2808, 589.975
2809, 592.367
2810, 738.825
2811, 731.961
2812, 745.813
2813, 752.925
2814, 760.160
2815, 767.519
2816, 775.002
2817, 782.608
2818, 790.338
2819, 792.231
2820, 798.192
2821, 806.170
2822, 814.271
2823, 822.496
2824, 830.844
2825, 837.856
2826, 544.955
2827, 544.893
2828, 545.140
2829, 545.449
2830, 545.882
2831, 546.439
2832, 547.119
2833, 547.923
2834, 548.851
2835, 549.902
2836, 551.077
2837, 552.376
2838, 553.798
2839, 555.344
2840, 557.014
2841, 558.807
2842, 560.724
2843, 562.765
2844, 564.929
2845, 567.217
2846, 569.629
2847, 572.165
2848, 574.824
2849, 577.607
2850, 580.513
2851, 583.543
2852, 585.761
2853, 586.697
2854, 589.975
2855, 592.367
2856, 745.813
2857, 738.825
2858, 752.925
2859, 760.160
2860, 767.519
2861, 775.002
2862, 782.608
2863, 790.338
2864, 792.231
2865, 798.192
2866, 806.170
2867, 814.271
2868, 822.496
2869, 830.844
2870, 837.856
2871, 544.955
2872, 544.893
2873, 545.140
2874, 545.449
2875, 545.882
2876, 546.439
2877, 547.119
2878, 547.923
2879, 548.851
2880, 549.902
2881, 551.077
2882, 552.376
2883, 553.798
2884, 555.344
2885, 557.014
2886, 558.807
2887, 560.724
2888, 562.765
2889, 564.929
2890, 567.217
2891, 569.629
2892, 572.165
2893, 574.824
2894, 577.607
2895, 580.513
2896, 583.543
2897, 585.761
2898, 586.697
2899, 589.975
2900, 592.367
2901, 760.160
2902, 752.925
2903, 767.519
2904, 775.002
2905, 782.608
2906, 790.338
2907, 792.231
2908, 798.192
2909, 806.170
2910, 814.271
2911, 822.496
2912, 830.844
2913, 837.856
2914, 544.955
2915, 544.893
2916, 545.140
2917, 545.449
2918, 545.882
2919, 546.439
2920, 547.119
2921, 547.923
2922, 548.851
2923, 549.902
2924, 551.077
2925, 552.376
2926, 553.798
2927, 555.344
2928, 557.014
2929, 558.807
2930, 560.724
2931, 562.765
2932, 564.929
2933, 567.217
2934, 569.629
2935, 572.165
2936, 574.824
2937, 577.607
2938, 580.513
2939, 583.543
2940, 585.761
2941, 586.697
2942, 589.975
2943, 592.367
2944, 767.519
2945, 760.160
2946, 775.002
2947, 782.608
2948, 790.338
2949, 792.231
2950, 798.192
2951, 806.170
2952, 814.271
2953, 822.496
2954, 830.844
2955, 837.856
2956, 544.955
2957, 544.893
2958, 545.140
2959, 545.449
2960, 545.882
2961, 546.439
2962, 547.119
2963, 547.923
2964, 548.851
2965, 549.902
2966, 551.077
2967, 552.376
2968, 553.798
2969, 555.344
2970, 557.014
2971, 558.807
2972, 560.724
2973, 562.765
2974, 564.929
2975, 567.217
2976, 569.629
2977, 572.165
2978, 574.824
2979, 577.607
2980, 580.513
2981, 583.543
2982, 585.761
2983, 586.697
2984, 589.975
2985, 592.367
2986, 775.002
2987, 767.519
2988, 782.608
2989, 790.338
2990, 792.231
2991, 798.192
2992, 806.170
2993, 814.271
2994, 822.496
2995, 830.844
2996, 837.856
2997, 544.955
2998, 544.893
2999, 545.140
3000, 545.449
3001, 545.882
3002, 546.439
3003, 547.119
3004, 547.923
3005, 548.851
3006, 549.902
3007, 551.077
3008, 552.376
3009, 553.798
3010, 555.344
3011, 557.014
3012, 558.807
3013, 560.724
3014, 562.765
3015, 564.929
3016, 567.217
3017, 569.629
3018, 572.165
3019, 574.824
3020, 577.607
3021, 580.513
3022, 583.543
3023, 585.761
3024, 586.697
3025, 589.975
3026, 790.338
3027, 782.608
3028, 792.231
3029, 798.192
3030, 806.170
3031, 814.271
3032, 822.496
3033, 830.844
3034, 837.856
3035, 544.955
3036, 544.893
3037, 545.140
3038, 545.449
3039, 545.882
3040, 546.439
3041, 547.119
3042, 547.923
3043, 548.851
3044, 549.902
3045, 551.077
3046, 552.376
3047, 553.798
3048, 555.344
3049, 557.014
3050, 558.807
3051, 560.724
3052, 562.765
3053, 564.929
3054, 567.217
3055, 569.629
3056, 572.165
3057, 574.824
3058, 577.607
3059, 580.513
3060, 583.543
3061, 585.761
3062, 586.697
3063, 589.975
3064, 792.231
3065, 790.338
3066, 798.192
3067, 806.170
3068, 814.271
3069, 822.496
3070, 830.844
3071, 837.856
3072, 544.955
3073, 544.893
3074, 545.140
3075, 545.449
3076, 545.882
3077, 546.439
3078, 547.119
3079, 547.923
3080, 548.851
3081, 549.902
3082, 551.077
3083, 552.376
3084, 553.798
3085, 555.344
3086, 557.014
3087, 558.807
3088, 560.724
3089, 562.765
3090, 564.929
3091, 567.217
3092, 569.629
3093, 572.165
3094, 574.824
3095, 577.607
3096, 580.513
3097, 583.543
3098, 585.761
3099, 586.697
3100, 589.975
3101, 544.955
3102, 544.893
3103, 545.140
3104, 545.449
3105, 545.882
3106, 546.439
3107, 547.119
3108, 547.923
3109, 548.851
3110, 549.902
3111, 551.077
3112, 552.376
3113, 553.798
3114, 555.344
3115, 557.014
3116, 558.807
3117, 560.724
3118, 562.765
3119, 564.929
3120, 567.217
3121, 569.629
3122, 572.165
3123, 574.824
3124, 577.607
3125, 580.513
3126, 583.543
3127, 585.761
3128, 586.697
3129, 589.975
3130, 544.955
3131, 544.893
3132, 545.140
3133, 545.449
3134, 545.882
3135, 546.439
3136, 547.119
3137, 547.923
3138, 548.851
3139, 549.902
3140, 551.077
3141, 552.376
3142, 553.798
3143, 555.344
3144, 557.014
3145, 558.807
3146, 560.724
3147, 562.765
3148, 564.929
3149, 567.217
3150, 569.629
3151, 572.165
3152, 574.824
3153, 577.607
3154, 580.513
3155, 583.543
3156, 585.761
3157, 586.697
3158, 589.975
3159, 544.955
3160, 544.893
3161, 545.140
3162, 545.449
3163, 545.882
3164, 546.439
3165, 547.119
3166, 547.923
3167, 548.851
3168, 549.902
3169, 551.077
3170, 552.376
3171, 553.798
3172, 555.344
3173, 557.014
3174, 558.807
3175, 560.724
3176, 562.765
3177, 564.929
3178, 567.217
3179, 569.629
3180, 572.165
3181, 574.824
3182, 577.607
3183, 580.513
3184, 583.543
3185, 585.761
3186, 586.697
3187, 589.975
3188, 544.955
3189, 544.893
3190, 545.140
3191, 545.449
3192, 545.882
3193, 546.439
3194, 547.119
3195, 547.923
3196, 548.851
3197, 549.902
3198, 551.077
3199, 552.376
3200, 553.798
3201, 555.344
3202, 557.014
3203, 558.807
3204, 560.724
3205, 562.765
3206, 564.929
3207, 567.217
3208, 569.629
3209, 572.165
3210, 574.824
3211, 577.607
3212, 580.513
3213, 583.543
3214, 585.761
3215, 586.697
3216, 589.975
3217, 544.955
3218, 544.893
3219, 545.140
3220, 545.449
3221, 545.882
3222, 546.439
3223, 547.119
3224, 547.923
3225, 548.851
3226, 549.902
3227, 551.077
3228, 552.376
3229, 553.798
3230, 555.344
3231, 557.014
3232, 558.807
3233, 560.724
3234, 562.765
3235, 564.929
3236, 567.217
3237, 569.629
3238, 572.165
3239, 574.824
3240, 577.607
3241, 580.513
3242, 583.543
3243, 585.761
3244, 586.697
3245, 589.975
3246, 544.955
3247, 544.893
3248, 545.140
3249, 545.449
3250, 545.882
3251, 546.439
3252, 547.119
3253, 547.923
3254, 548.851
3255, 549.902
3256, 551.077
3257, 552.376
3258, 553.798
3259, 555.344
3260, 557.014
3261, 558.807
3262, 560.724
3263, 562.765
3264, 564.929
3265, 567.217
3266, 569.629
3267, 572.165
3268, 574.824
3269, 577.607
3270, 580.513
3271, 583.543
3272, 585.761
3273, 586.697
3274, 589.975
3275, 544.955
3276, 544.893
3277, 545.140
3278, 545.449
3279, 545.882
3280, 546.439
3281, 547.119
3282, 547.923
3283, 548.851
3284, 549.902
3285, 551.077
3286, 552.376
3287, 553.798
3288, 555.344
3289, 557.014
3290, 558.807
3291, 560.724
3292, 562.765
3293, 564.929
3294, 567.217
3295, 569.629
3296, 572.165
3297, 574.824
3298, 577.607
3299, 580.513
3300, 583.543
3301, 585.761
3302, 586.697
3303, 589.975
3304, 544.955
3305, 544.893
3306, 545.140
3307, 545.449
3308, 545.882
3309, 546.439
3310, 547.119
3311, 547.923
3312, 548.851
3313, 549.902
3314, 551.077
3315, 552.376
3316, 553.798
3317, 555.344
3318, 557.014
3319, 558.807
3320, 560.724
3321, 562.765
3322, 564.929
3323, 567.217
3324, 569.629
3325, 572.165
3326, 574.824
3327, 577.607
3328, 580.513
3329, 583.543
3330, 585.761
3331, 586.697
3332, 589.975
3333, 544.955
3334, 544.893
3335, 545.140
3336, 545.449
3337, 545.882
3338, 546.439
3339, 547.119
3340, 547.923
3341, 548.851
3342, 549.902
3343, 551.077
3344, 552.376
3345, 553.798
3346, 555.344
3347, 557.014
3348, 558.807
3349, 560.724
3350, 562.765
3351, 564.929
3352, 567.217
3353, 569.629
3354, 572.165
3355, 574.824
3356, 577.607
3357, 580.513
3358, 583.543
3359, 585.761
3360, 586.697
3361, 589.975
3362, 544.955
3363, 544.893
3364, 545.140
3365, 545.449
3366, 545.882
3367, 546.439
3368, 547.119
3369, 547.923
3370, 548.851
3371, 549.902
3372, 551.077
3373, 552.376
3374, 553.798
3375, 555.344
3376, 557.014
3377, 558.807
3378, 560.724
3379, 562.765
3380, 564.929
3381, 567.217
3382, 569.629
3383, 572.165
3384, 574.824
3385, 577.607
3386, 580.513
3387, 583.543
3388, 585.761
3389, 586.697
3390, 544.955
3391, 544.893
3392, 545.140
3393, 545.449
3394, 545.882
3395, 546.439
3396, 547.119
3397, 547.923
3398, 548.851
3399, 549.902
3400, 551.077
3401, 552.376
3402, 553.798
3403, 555.344
3404, 557.014
3405, 558.807
3406, 560.724
3407, 562.765
3408, 564.929
3409, 567.217
3410, 569.629
3411, 572.165
3412, 574.824
3413, 577.607
3414, 580.513
3415, 583.543
3416, 585.761
3417, 586.697
3418, 544.955
3419, 544.893
3420, 545.140
3421, 545.449
3422, 545.882
3423, 546.439
3424, 547.119
3425, 547.923
3426, 548.851
3427, 549.902
3428, 551.077
3429, 552.376
3430, 553.798
3431, 555.344
3432, 557.014
3433, 558.807
3434, 560.724
3435, 562.765
3436, 564.929
3437, 567.217
3438, 569.629
3439, 572.165
3440, 574.824
3441, 577.607
3442, 580.513
3443, 583.543
3444, 585.761
3445, 586.697
3446, 544.955
3447, 544.893
3448, 545.140
3449, 545.449
3450, 545.882
3451, 546.439
3452, 547.119
3453, 547.923
3454, 548.851
3455, 549.902
3456, 551.077
3457, 552.376
3458, 553.798
3459, 555.344
3460, 557.014
3461, 558.807
3462, 560.724
3463, 562.765
3464, 564.929
3465, 567.217
3466, 569.629
3467, 572.165
3468, 574.824
3469, 577.607
3470, 580.513
3471, 583.543
3472, 585.761
3473, 586.697
3474, 544.955
3475, 544.893
3476, 545.140
3477, 545.449
3478, 545.882
3479, 546.439
3480, 547.119
3481, 547.923
3482, 548.851
3483, 549.902
3484, 551.077
3485, 552.376
3486, 553.798
3487, 555.344
3488, 557.014
3489, 558.807
3490, 560.724
3491, 562.765
3492, 564.929
3493, 567.217
3494, 569.629
3495, 572.165
3496, 574.824
3497, 577.607
3498, 580.513
3499, 583.543
3500, 585.761
3501, 586.697
3502, 544.955
3503, 544.893
3504, 545.140
3505, 545.449
3506, 545.882
3507, 546.439
3508, 547.119
3509, 547.923
3510, 548.851
3511, 549.902
3512, 551.077
3513, 552.376
3514, 553.798
3515, 555.344
3516, 557.014
3517, 558.807
3518, 560.724
3519, 562.765
3520, 564.929
3521, 567.217
3522, 569.629
3523, 572.165
3524, 574.824
3525, 577.607
3526, 580.513
3527, 583.543
3528, 585.761
3529, 586.697
3530, 544.955
3531, 544.893
3532, 545.140
3533, 545.449
3534, 545.882
3535, 546.439
3536, 547.119
3537, 547.923
3538, 548.851
3539, 549.902
3540, 551.077
3541, 552.376
3542, 553.798
3543, 555.344
3544, 557.014
3545, 558.807
3546, 560.724
3547, 562.765
3548, 564.929
3549, 567.217
3550, 569.629
3551, 572.165
3552, 574.824
3553, 577.607
3554, 580.513
3555, 583.543
3556, 585.761
3557, 586.697
3558, 544.955
3559, 544.893
3560, 545.140
3561, 545.449
3562, 545.882
3563, 546.439
3564, 547.119
3565, 547.923
3566, 548.851
3567, 549.902
3568, 551.077
3569, 552.376
3570, 553.798
3571, 555.344
3572, 557.014
3573, 558.807
3574, 560.724
3575, 562.765
3576, 564.929
3577, 567.217
3578, 569.629
3579, 572.165
3580, 574.824
3581, 577.607
3582, 580.513
3583, 583.543
3584, 585.761
3585, 586.697
3586, 544.955
3587, 544.893
3588, 545.140
3589, 545.449
3590, 545.882
3591, 546.439
3592, 547.119
3593, 547.923
3594, 548.851
3595, 549.902
3596, 551.077
3597, 552.376
3598, 553.798
3599, 555.344
3600, 557.014
3601, 558.807
3602, 560.724
3603, 562.765
3604, 564.929
3605, 567.217
3606, 569.629
3607, 572.165
3608, 574.824
3609, 577.607
3610, 580.513
3611, 583.543
3612, 585.761
3613, 586.697
3614, 544.955
3615, 544.893
3616, 545.140
3617, 545.449
3618, 545.882
3619, 546.439
3620, 547.119
3621, 547.923
3622, 548.851
3623, 549.902
3624, 551.077
3625, 552.376
3626, 553.798
3627, 555.344
3628, 557.014
3629, 558.807
3630, 560.724
3631, 562.765
3632, 564.929
3633, 567.217
3634, 569.629
3635, 572.165
3636, 574.824
3637, 577.607
3638, 580.513
3639, 583.543
3640, 585.761
3641, 544.955
3642, 544.893
3643, 545.140
3644, 545.449
3645, 545.882
3646, 546.439
3647, 547.119
3648, 547.923
3649, 548.851
3650, 549.902
3651, 551.077
3652, 552.376
3653, 553.798
3654, 555.344
3655, 557.014
3656, 558.807
3657, 560.724
3658, 562.765
3659, 564.929
3660, 567.217
3661, 569.629
3662, 572.165
3663, 574.824
3664, 577.607
3665, 580.513
3666, 583.543
3667, 585.761
*NODE FILE
U
*EL FILE
S
*EL PRINT, ELSET=DISC
S
*END STEP
** ---- step 3: idle + start thermal gradient
*STEP
*STATIC
*DLOAD
DISC, CENTRIF, 1.441031e+07, 0., 0., 0., 0., 1., 0.
582, P2, -3.477375e+07
618, P2, -3.477375e+07
656, P2, -3.477375e+07
695, P2, -3.477375e+07
736, P2, -3.477375e+07
778, P2, -3.477375e+07
821, P2, -3.477375e+07
894, P2, -3.477375e+07
967, P2, -3.477375e+07
1040, P2, -3.477375e+07
1113, P2, -3.477375e+07
1186, P2, -3.477375e+07
1259, P2, -3.477375e+07
1332, P2, -3.477375e+07
1405, P2, -3.477375e+07
1478, P2, -3.477375e+07
1551, P2, -3.477375e+07
1624, P2, -3.477375e+07
1697, P2, -3.477375e+07
1770, P2, -3.477375e+07
1843, P2, -3.477375e+07
1916, P2, -3.477375e+07
1989, P2, -3.477375e+07
2062, P2, -3.477375e+07
2135, P2, -3.477375e+07
2208, P2, -3.477375e+07
2281, P2, -3.477375e+07
2354, P2, -3.477375e+07
2427, P2, -3.477375e+07
2500, P2, -3.477375e+07
2573, P2, -3.477375e+07
2646, P2, -3.477375e+07
2690, P2, -3.477375e+07
2733, P2, -3.477375e+07
2774, P2, -3.477375e+07
2814, P2, -3.477375e+07
2853, P2, -3.477375e+07
2889, P2, -3.477375e+07
2924, P2, -3.477375e+07
*TEMPERATURE
1, 544.893
2, 544.955
3, 544.955
4, 544.893
5, 545.140
6, 545.140
7, 545.449
8, 545.449
9, 545.882
10, 545.882
11, 546.439
12, 546.439
13, 547.119
14, 547.119
15, 547.923
16, 547.923
17, 548.851
18, 548.851
19, 549.902
20, 549.902
21, 551.077
22, 551.077
23, 552.376
24, 552.376
25, 553.798
26, 553.798
27, 555.344
28, 555.344
29, 557.014
30, 557.014
31, 558.807
32, 558.807
33, 560.724
34, 560.724
35, 562.765
36, 562.765
37, 564.929
38, 564.929
39, 567.217
40, 567.217
41, 569.629
42, 569.629
43, 572.165
44, 572.165
45, 574.824
46, 574.824
47, 577.607
48, 577.607
49, 580.513
50, 580.513
51, 583.543
52, 583.543
53, 585.761
54, 585.761
55, 544.955
56, 544.893
57, 545.140
58, 545.449
59, 545.882
60, 546.439
61, 547.119
62, 547.923
63, 548.851
64, 549.902
65, 551.077
66, 552.376
67, 553.798
68, 555.344
69, 557.014
70, 558.807
71, 560.724
72, 562.765
73, 564.929
74, 567.217
75, 569.629
76, 572.165
77, 574.824
78, 577.607
79, 580.513
80, 583.543
81, 585.761
82, 544.955
83, 544.893
84, 545.140
85, 545.449
86, 545.882
87, 546.439
88, 547.119
89, 547.923
90, 548.851
91, 549.902
92, 551.077
93, 552.376
94, 553.798
95, 555.344
96, 557.014
97, 558.807
98, 560.724
99, 562.765
100, 564.929
101, 567.217
102, 569.629
103, 572.165
104, 574.824
105, 577.607
106, 580.513
107, 583.543
108, 585.761
109, 586.697
110, 586.697
111, 544.955
112, 544.893
113, 545.140
114, 545.449
115, 545.882
116, 546.439
117, 547.119
118, 547.923
119, 548.851
120, 549.902
121, 551.077
122, 552.376
123, 553.798
124, 555.344
125, 557.014
126, 558.807
127, 560.724
128, 562.765
129, 564.929
130, 567.217
131, 569.629
132, 572.165
133, 574.824
134, 577.607
135, 580.513
136, 583.543
137, 585.761
138, 586.697
139, 544.955
140, 544.893
141, 545.140
142, 545.449
143, 545.882
144, 546.439
145, 547.119
146, 547.923
147, 548.851
148, 549.902
149, 551.077
150, 552.376
151, 553.798
152, 555.344
153, 557.014
154, 558.807
155, 560.724
156, 562.765
157, 564.929
158, 567.217
159, 569.629
160, 572.165
161, 574.824
162, 577.607
163, 580.513
164, 583.543
165, 585.761
166, 586.697
167, 544.955
168, 544.893
169, 545.140
170, 545.449
171, 545.882
172, 546.439
173, 547.119
174, 547.923
175, 548.851
176, 549.902
177, 551.077
178, 552.376
179, 553.798
180, 555.344
181, 557.014
182, 558.807
183, 560.724
184, 562.765
185, 564.929
186, 567.217
187, 569.629
188, 572.165
189, 574.824
190, 577.607
191, 580.513
192, 583.543
193, 585.761
194, 586.697
195, 544.955
196, 544.893
197, 545.140
198, 545.449
199, 545.882
200, 546.439
201, 547.119
202, 547.923
203, 548.851
204, 549.902
205, 551.077
206, 552.376
207, 553.798
208, 555.344
209, 557.014
210, 558.807
211, 560.724
212, 562.765
213, 564.929
214, 567.217
215, 569.629
216, 572.165
217, 574.824
218, 577.607
219, 580.513
220, 583.543
221, 585.761
222, 586.697
223, 544.955
224, 544.893
225, 545.140
226, 545.449
227, 545.882
228, 546.439
229, 547.119
230, 547.923
231, 548.851
232, 549.902
233, 551.077
234, 552.376
235, 553.798
236, 555.344
237, 557.014
238, 558.807
239, 560.724
240, 562.765
241, 564.929
242, 567.217
243, 569.629
244, 572.165
245, 574.824
246, 577.607
247, 580.513
248, 583.543
249, 585.761
250, 586.697
251, 544.955
252, 544.893
253, 545.140
254, 545.449
255, 545.882
256, 546.439
257, 547.119
258, 547.923
259, 548.851
260, 549.902
261, 551.077
262, 552.376
263, 553.798
264, 555.344
265, 557.014
266, 558.807
267, 560.724
268, 562.765
269, 564.929
270, 567.217
271, 569.629
272, 572.165
273, 574.824
274, 577.607
275, 580.513
276, 583.543
277, 585.761
278, 586.697
279, 544.955
280, 544.893
281, 545.140
282, 545.449
283, 545.882
284, 546.439
285, 547.119
286, 547.923
287, 548.851
288, 549.902
289, 551.077
290, 552.376
291, 553.798
292, 555.344
293, 557.014
294, 558.807
295, 560.724
296, 562.765
297, 564.929
298, 567.217
299, 569.629
300, 572.165
301, 574.824
302, 577.607
303, 580.513
304, 583.543
305, 585.761
306, 586.697
307, 544.955
308, 544.893
309, 545.140
310, 545.449
311, 545.882
312, 546.439
313, 547.119
314, 547.923
315, 548.851
316, 549.902
317, 551.077
318, 552.376
319, 553.798
320, 555.344
321, 557.014
322, 558.807
323, 560.724
324, 562.765
325, 564.929
326, 567.217
327, 569.629
328, 572.165
329, 574.824
330, 577.607
331, 580.513
332, 583.543
333, 585.761
334, 586.697
335, 589.975
336, 589.975
337, 544.955
338, 544.893
339, 545.140
340, 545.449
341, 545.882
342, 546.439
343, 547.119
344, 547.923
345, 548.851
346, 549.902
347, 551.077
348, 552.376
349, 553.798
350, 555.344
351, 557.014
352, 558.807
353, 560.724
354, 562.765
355, 564.929
356, 567.217
357, 569.629
358, 572.165
359, 574.824
360, 577.607
361, 580.513
362, 583.543
363, 585.761
364, 586.697
365, 589.975
366, 544.955
367, 544.893
368, 545.140
369, 545.449
370, 545.882
371, 546.439
372, 547.119
373, 547.923
374, 548.851
375, 549.902
376, 551.077
377, 552.376
378, 553.798
379, 555.344
380, 557.014
381, 558.807
382, 560.724
383, 562.765
384, 564.929
385, 567.217
386, 569.629
387, 572.165
388, 574.824
389, 577.607
390, 580.513
391, 583.543
392, 585.761
393, 586.697
394, 589.975
395, 544.955
396, 544.893
397, 545.140
398, 545.449
399, 545.882
400, 546.439
401, 547.119
402, 547.923
403, 548.851
404, 549.902
405, 551.077
406, 552.376
407, 553.798
408, 555.344
409, 557.014
410, 558.807
411, 560.724
412, 562.765
413, 564.929
414, 567.217
415, 569.629
416, 572.165
417, 574.824
418, 577.607
419, 580.513
420, 583.543
421, 585.761
422, 586.697
423, 589.975
424, 544.955
425, 544.893
426, 545.140
427, 545.449
428, 545.882
429, 546.439
430, 547.119
431, 547.923
432, 548.851
433, 549.902
434, 551.077
435, 552.376
436, 553.798
437, 555.344
438, 557.014
439, 558.807
440, 560.724
441, 562.765
442, 564.929
443, 567.217
444, 569.629
445, 572.165
446, 574.824
447, 577.607
448, 580.513
449, 583.543
450, 585.761
451, 586.697
452, 589.975
453, 544.955
454, 544.893
455, 545.140
456, 545.449
457, 545.882
458, 546.439
459, 547.119
460, 547.923
461, 548.851
462, 549.902
463, 551.077
464, 552.376
465, 553.798
466, 555.344
467, 557.014
468, 558.807
469, 560.724
470, 562.765
471, 564.929
472, 567.217
473, 569.629
474, 572.165
475, 574.824
476, 577.607
477, 580.513
478, 583.543
479, 585.761
480, 586.697
481, 589.975
482, 544.955
483, 544.893
484, 545.140
485, 545.449
486, 545.882
487, 546.439
488, 547.119
489, 547.923
490, 548.851
491, 549.902
492, 551.077
493, 552.376
494, 553.798
495, 555.344
496, 557.014
497, 558.807
498, 560.724
499, 562.765
500, 564.929
501, 567.217
502, 569.629
503, 572.165
504, 574.824
505, 577.607
506, 580.513
507, 583.543
508, 585.761
509, 586.697
510, 589.975
511, 544.955
512, 544.893
513, 545.140
514, 545.449
515, 545.882
516, 546.439
517, 547.119
518, 547.923
519, 548.851
520, 549.902
521, 551.077
522, 552.376
523, 553.798
524, 555.344
525, 557.014
526, 558.807
527, 560.724
528, 562.765
529, 564.929
530, 567.217
531, 569.629
532, 572.165
533, 574.824
534, 577.607
535, 580.513
536, 583.543
537, 585.761
538, 586.697
539, 589.975
540, 544.955
541, 544.893
542, 545.140
543, 545.449
544, 545.882
545, 546.439
546, 547.119
547, 547.923
548, 548.851
549, 549.902
550, 551.077
551, 552.376
552, 553.798
553, 555.344
554, 557.014
555, 558.807
556, 560.724
557, 562.765
558, 564.929
559, 567.217
560, 569.629
561, 572.165
562, 574.824
563, 577.607
564, 580.513
565, 583.543
566, 585.761
567, 586.697
568, 589.975
569, 544.955
570, 544.893
571, 545.140
572, 545.449
573, 545.882
574, 546.439
575, 547.119
576, 547.923
577, 548.851
578, 549.902
579, 551.077
580, 552.376
581, 553.798
582, 555.344
583, 557.014
584, 558.807
585, 560.724
586, 562.765
587, 564.929
588, 567.217
589, 569.629
590, 572.165
591, 574.824
592, 577.607
593, 580.513
594, 583.543
595, 585.761
596, 586.697
597, 589.975
598, 544.955
599, 544.893
600, 545.140
601, 545.449
602, 545.882
603, 546.439
604, 547.119
605, 547.923
606, 548.851
607, 549.902
608, 551.077
609, 552.376
610, 553.798
611, 555.344
612, 557.014
613, 558.807
614, 560.724
615, 562.765
616, 564.929
617, 567.217
618, 569.629
619, 572.165
620, 574.824
621, 577.607
622, 580.513
623, 583.543
624, 585.761
625, 586.697
626, 589.975
627, 792.231
628, 798.192
629, 798.192
630, 792.231
631, 806.170
632, 806.170
633, 814.271
634, 814.271
635, 822.496
636, 822.496
637, 830.844
638, 830.844
639, 837.856
640, 837.856
641, 544.955
642, 544.893
643, 545.140
644, 545.449
645, 545.882
646, 546.439
647, 547.119
648, 547.923
649, 548.851
650, 549.902
651, 551.077
652, 552.376
653, 553.798
654, 555.344
655, 557.014
656, 558.807
657, 560.724
658, 562.765
659, 564.929
660, 567.217
661, 569.629
662, 572.165
663, 574.824
664, 577.607
665, 580.513
666, 583.543
667, 585.761
668, 586.697
669, 589.975
670, 782.608
671, 790.338
672, 790.338
673, 782.608
674, 792.231
675, 798.192
676, 806.170
677, 814.271
678, 822.496
679, 830.844
680, 837.856
681, 544.955
682, 544.893
683, 545.140
684, 545.449
685, 545.882
686, 546.439
687, 547.119
688, 547.923
689, 548.851
690, 549.902
691, 551.077
692, 552.376
693, 553.798
694, 555.344
695, 557.014
696, 558.807
697, 560.724
698, 562.765
699, 564.929
700, 567.217
701, 569.629
702, 572.165
703, 574.824
704, 577.607
705, 580.513
706, 583.543
707, 585.761
708, 586.697
709, 589.975
710, 592.367
711, 592.367
712, 775.002
713, 782.608
714, 775.002
715, 790.338
716, 792.231
717, 798.192
718, 806.170
719, 814.271
720, 822.496
721, 830.844
722, 837.856
723, 544.955
724, 544.893
725, 545.140
726, 545.449
727, 545.882
728, 546.439
729, 547.119
730, 547.923
731, 548.851
732, 549.902
733, 551.077
734, 552.376
735, 553.798
736, 555.344
737, 557.014
738, 558.807
739, 560.724
740, 562.765
741, 564.929
742, 567.217
743, 569.629
744, 572.165
745, 574.824
746, 577.607
747, 580.513
748, 583.543
749, 585.761
750, 586.697
751, 589.975
752, 592.367
753, 767.519
754, 775.002
755, 767.519
756, 782.608
757, 790.338
758, 792.231
759, 798.192
760, 806.170
761, 814.271
762, 822.496
763, 830.844
764, 837.856
765, 544.955
766, 544.893
767, 545.140
768, 545.449
769, 545.882
770, 546.439
771, 547.119
772, 547.923
773, 548.851
774, 549.902
775, 551.077
776, 552.376
777, 553.798
778, 555.344
779, 557.014
780, 558.807
781, 560.724
782, 562.765
783, 564.929
784, 567.217
785, 569.629
786, 572.165
787, 574.824
788, 577.607
789, 580.513
790, 583.543
791, 585.761
792, 586.697
793, 589.975
794, 592.367
795, 752.925
796, 760.160
797, 760.160
798, 752.925
799, 767.519
800, 775.002
801, 782.608
802, 790.338
803, 792.231
804, 798.192
805, 806.170
806, 814.271
807, 822.496
808, 830.844
809, 837.856
810, 544.955
811, 544.893
812, 545.140
813, 545.449
814, 545.882
815, 546.439
816, 547.119
817, 547.923
818, 548.851
819, 549.902
820, 551.077
821, 552.376
822, 553.798
823, 555.344
824, 557.014
825, 558.807
826, 560.724
827, 562.765
828, 564.929
829, 567.217
830, 569.629
831, 572.165
832, 574.824
833, 577.607
834, 580.513
835, 583.543
836, 585.761
837, 586.697
838, 589.975
839, 592.367
840, 745.813
841, 752.925
842, 745.813
843, 760.160
844, 767.519
845, 775.002
846, 782.608
847, 790.338
848, 792.231
849, 798.192
850, 806.170
851, 814.271
852, 822.496
853, 830.844
854, 837.856
855, 544.955
856, 544.893
857, 545.140
858, 545.449
859, 545.882
860, 546.439
861, 547.119
862, 547.923
863, 548.851
864, 549.902
865, 551.077
866, 552.376
867, 553.798
868, 555.344
869, 557.014
870, 558.807
871, 560.724
872, 562.765
873, 564.929
874, 567.217
875, 569.629
876, 572.165
877, 574.824
878, 577.607
879, 580.513
880, 583.543
881, 585.761
882, 586.697
883, 589.975
884, 592.367
885, 738.825
886, 745.813
887, 738.825
888, 752.925
889, 760.160
890, 767.519
891, 775.002
892, 782.608
893, 790.338
894, 792.231
895, 798.192
896, 806.170
897, 814.271
898, 822.496
899, 830.844
900, 837.856
901, 544.955
902, 544.893
903, 545.140
904, 545.449
905, 545.882
906, 546.439
907, 547.119
908, 547.923
909, 548.851
910, 549.902
911, 551.077
912, 552.376
913, 553.798
914, 555.344
915, 557.014
916, 558.807
917, 560.724
918, 562.765
919, 564.929
920, 567.217
921, 569.629
922, 572.165
923, 574.824
924, 577.607
925, 580.513
926, 583.543
927, 585.761
928, 586.697
929, 589.975
930, 592.367
931, 593.376
932, 593.376
933, 596.901
934, 596.901
935, 600.549
936, 600.549
937, 604.322
938, 604.322
939, 608.218
940, 608.218
941, 612.237
942, 612.237
943, 616.381
944, 616.381
945, 620.648
946, 620.648
947, 625.038
948, 625.038
949, 629.553
950, 629.553
951, 634.191
952, 634.191
953, 638.953
954, 638.953
955, 643.838
956, 643.838
957, 648.847
958, 648.847
959, 653.980
960, 653.980
961, 659.236
962, 659.236
963, 664.616
964, 664.616
965, 670.120
966, 670.120
967, 675.748
968, 675.748
969, 681.499
970, 681.499
971, 687.374
972, 687.374
973, 693.372
974, 693.372
975, 699.494
976, 699.494
977, 705.740
978, 705.740
979, 712.110
980, 712.110
981, 718.603
982, 718.603
983, 725.220
984, 725.220
985, 731.030
986, 731.030
987, 731.961
988, 731.961
989, 738.825
990, 745.813
991, 752.925
992, 760.160
993, 767.519
994, 775.002
995, 782.608
996, 790.338
997, 792.231
998, 798.192
999, 806.170
1000, 814.271
1001, 822.496
1002, 830.844
1003, 837.856
1004, 544.955
1005, 544.893
1006, 545.140
1007, 545.449
1008, 545.882
1009, 546.439
1010, 547.119
1011, 547.923
1012, 548.851
1013, 549.902
1014, 551.077
1015, 552.376
1016, 553.798
1017, 555.344
1018, 557.014
1019, 558.807
1020, 560.724
1021, 562.765
1022, 564.929
1023, 567.217
1024, 569.629
1025, 572.165
1026, 574.824
1027, 577.607
1028, 580.513
1029, 583.543
1030, 585.761
1031, 586.697
1032, 589.975
1033, 592.367
1034, 593.376
1035, 596.901
1036, 600.549
1037, 604.322
1038, 608.218
1039, 612.237
1040, 616.381
1041, 620.648
1042, 625.038
1043, 629.553
1044, 634.191
1045, 638.953
1046, 643.838
1047, 648.847
1048, 653.980
1049, 659.236
1050, 664.616
1051, 670.120
1052, 675.748
1053, 681.499
1054, 687.374
1055, 693.372
1056, 699.494
1057, 705.740
1058, 712.110
1059, 718.603
1060, 725.220
1061, 731.030
1062, 731.961
1063, 738.825
1064, 745.813
1065, 752.925
1066, 760.160
1067, 767.519
1068, 775.002
1069, 782.608
1070, 790.338
1071, 792.231
1072, 798.192
1073, 806.170
1074, 814.271
1075, 822.496
1076, 830.844
1077, 837.856
1078, 544.955
1079, 544.893
1080, 545.140
1081, 545.449
1082, 545.882
1083, 546.439
1084, 547.119
1085, 547.923
1086, 548.851
1087, 549.902
1088, 551.077
1089, 552.376
1090, 553.798
1091, 555.344
1092, 557.014
1093, 558.807
1094, 560.724
1095, 562.765
1096, 564.929
1097, 567.217
1098, 569.629
1099, 572.165
1100, 574.824
1101, 577.607
1102, 580.513
1103, 583.543
1104, 585.761
1105, 586.697
1106, 589.975
1107, 592.367
1108, 593.376
1109, 596.901
1110, 600.549
1111, 604.322
1112, 608.218
1113, 612.237
1114, 616.381
1115, 620.648
1116, 625.038
1117, 629.553
1118, 634.191
1119, 638.953
1120, 643.838
1121, 648.847
1122, 653.980
1123, 659.236
1124, 664.616
1125, 670.120
1126, 675.748
1127, 681.499
1128, 687.374
1129, 693.372
1130, 699.494
1131, 705.740
1132, 712.110
1133, 718.603
1134, 725.220
1135, 731.030
1136, 731.961
1137, 738.825
1138, 745.813
1139, 752.925
1140, 760.160
1141, 767.519
1142, 775.002
1143, 782.608
1144, 790.338
1145, 792.231
1146, 798.192
1147, 806.170
1148, 814.271
1149, 822.496
1150, 830.844
1151, 837.856
1152, 544.955
1153, 544.893
1154, 545.140
1155, 545.449
1156, 545.882
1157, 546.439
1158, 547.119
1159, 547.923
1160, 548.851
1161, 549.902
1162, 551.077
1163, 552.376
1164, 553.798
1165, 555.344
1166, 557.014
1167, 558.807
1168, 560.724
1169, 562.765
1170, 564.929
1171, 567.217
1172, 569.629
1173, 572.165
1174, 574.824
1175, 577.607
1176, 580.513
1177, 583.543
1178, 585.761
1179, 586.697
1180, 589.975
1181, 592.367
1182, 593.376
1183, 596.901
1184, 600.549
1185, 604.322
1186, 608.218
1187, 612.237
1188, 616.381
1189, 620.648
1190, 625.038
1191, 629.553
1192, 634.191
1193, 638.953
1194, 643.838
1195, 648.847
1196, 653.980
1197, 659.236
1198, 664.616
1199, 670.120
1200, 675.748
1201, 681.499
1202, 687.374
1203, 693.372
1204, 699.494
1205, 705.740
1206, 712.110
1207, 718.603
1208, 725.220
1209, 731.030
1210, 731.961
1211, 738.825
1212, 745.813
1213, 752.925
1214, 760.160
1215, 767.519
1216, 775.002
1217, 782.608
1218, 790.338
1219, 792.231
1220, 798.192
1221, 806.170
1222, 814.271
1223, 822.496
1224, 830.844
1225, 837.856
1226, 544.955
1227, 544.893
1228, 545.140
1229, 545.449
1230, 545.882
1231, 546.439
1232, 547.119
1233, 547.923
1234, 548.851
1235, 549.902
1236, 551.077
1237, 552.376
1238, 553.798
1239, 555.344
1240, 557.014
1241, 558.807
1242, 560.724
1243, 562.765
1244, 564.929
1245, 567.217
1246, 569.629
1247, 572.165
1248, 574.824
1249, 577.607
1250, 580.513
1251, 583.543
1252, 585.761
1253, 586.697
1254, 589.975
1255, 592.367
1256, 593.376
1257, 596.901
1258, 600.549
1259, 604.322
1260, 608.218
1261, 612.237
1262, 616.381
1263, 620.648
1264, 625.038
1265, 629.553
1266, 634.191
1267, 638.953
1268, 643.838
1269, 648.847
1270, 653.980
1271, 659.236
1272, 664.616
1273, 670.120
1274, 675.748
1275, 681.499
1276, 687.374
1277, 693.372
1278, 699.494
1279, 705.740
1280, 712.110
1281, 718.603
1282, 725.220
1283, 731.030
1284, 731.961
1285, 738.825
1286, 745.813
1287, 752.925
1288, 760.160
1289, 767.519
1290, 775.002
1291, 782.608
1292, 790.338
1293, 792.231
1294, 798.192
1295, 806.170
1296, 814.271
1297, 822.496
1298, 830.844
1299, 837.856
1300, 544.955
1301, 544.893
1302, 545.140
1303, 545.449
1304, 545.882
1305, 546.439
1306, 547.119
1307, 547.923
1308, 548.851
1309, 549.902
1310, 551.077
1311, 552.376
1312, 553.798
1313, 555.344
1314, 557.014
1315, 558.807
1316, 560.724
1317, 562.765
1318, 564.929
1319, 567.217
1320, 569.629
1321, 572.165
1322, 574.824
1323, 577.607
1324, 580.513
1325, 583.543
1326, 585.761
1327, 586.697
1328, 589.975
1329, 592.367
1330, 593.376
1331, 596.901
1332, 600.549
1333, 604.322
1334, 608.218
1335, 612.237
1336, 616.381
1337, 620.648
1338, 625.038
1339, 629.553
1340, 634.191
1341, 638.953
1342, 643.838
1343, 648.847
1344, 653.980
1345, 659.236
1346, 664.616
1347, 670.120
1348, 675.748
1349, 681.499
1350, 687.374
1351, 693.372
1352, 699.494
1353, 705.740
1354, 712.110
1355, 718.603
1356, 725.220
1357, 731.030
1358, 731.961
1359, 738.825
1360, 745.813
1361, 752.925
1362, 760.160
1363, 767.519
1364, 775.002
1365, 782.608
1366, 790.338
1367, 792.231
1368, 798.192
1369, 806.170
1370, 814.271
1371, 822.496
1372, 830.844
1373, 837.856
1374, 544.955
1375, 544.893
1376, 545.140
1377, 545.449
1378, 545.882
1379, 546.439
1380, 547.119
1381, 547.923
1382, 548.851
1383, 549.902
1384, 551.077
1385, 552.376
1386, 553.798
1387, 555.344
1388, 557.014
1389, 558.807
1390, 560.724
1391, 562.765
1392, 564.929
1393, 567.217
1394, 569.629
1395, 572.165
1396, 574.824
1397, 577.607
1398, 580.513
1399, 583.543
1400, 585.761
1401, 586.697
1402, 589.975
1403, 592.367
1404, 593.376
1405, 596.901
1406, 600.549
1407, 604.322
1408, 608.218
1409, 612.237
1410, 616.381
1411, 620.648
1412, 625.038
1413, 629.553
1414, 634.191
1415, 638.953
1416, 643.838
1417, 648.847
1418, 653.980
1419, 659.236
1420, 664.616
1421, 670.120
1422, 675.748
1423, 681.499
1424, 687.374
1425, 693.372
1426, 699.494
1427, 705.740
1428, 712.110
1429, 718.603
1430, 725.220
1431, 731.030
1432, 731.961
1433, 738.825
1434, 745.813
1435, 752.925
1436, 760.160
1437, 767.519
1438, 775.002
1439, 782.608
1440, 790.338
1441, 792.231
1442, 798.192
1443, 806.170
1444, 814.271
1445, 822.496
1446, 830.844
1447, 837.856
1448, 544.955
1449, 544.893
1450, 545.140
1451, 545.449
1452, 545.882
1453, 546.439
1454, 547.119
1455, 547.923
1456, 548.851
1457, 549.902
1458, 551.077
1459, 552.376
1460, 553.798
1461, 555.344
1462, 557.014
1463, 558.807
1464, 560.724
1465, 562.765
1466, 564.929
1467, 567.217
1468, 569.629
1469, 572.165
1470, 574.824
1471, 577.607
1472, 580.513
1473, 583.543
1474, 585.761
1475, 586.697
1476, 589.975
1477, 592.367
1478, 593.376
1479, 596.901
1480, 600.549
1481, 604.322
1482, 608.218
1483, 612.237
1484, 616.381
1485, 620.648
1486, 625.038
1487, 629.553
1488, 634.191
1489, 638.953
1490, 643.838
1491, 648.847
1492, 653.980
1493, 659.236
1494, 664.616
1495, 670.120
1496, 675.748
1497, 681.499
1498, 687.374
1499, 693.372
1500, 699.494
1501, 705.740
1502, 712.110
1503, 718.603
1504, 725.220
1505, 731.030
1506, 731.961
1507, 738.825
1508, 745.813
1509, 752.925
1510, 760.160
1511, 767.519
1512, 775.002
1513, 782.608
1514, 790.338
1515, 792.231
1516, 798.192
1517, 806.170
1518, 814.271
1519, 822.496
1520, 830.844
1521, 837.856
1522, 544.955
1523, 544.893
1524, 545.140
1525, 545.449
1526, 545.882
1527, 546.439
1528, 547.119
1529, 547.923
1530, 548.851
1531, 549.902
1532, 551.077
1533, 552.376
1534, 553.798
1535, 555.344
1536, 557.014
1537, 558.807
1538, 560.724
1539, 562.765
1540, 564.929
1541, 567.217
1542, 569.629
1543, 572.165
1544, 574.824
1545, 577.607
1546, 580.513
1547, 583.543
1548, 585.761
1549, 586.697
1550, 589.975
1551, 592.367
1552, 593.376
1553, 596.901
1554, 600.549
1555, 604.322
1556, 608.218
1557, 612.237
1558, 616.381
1559, 620.648
1560, 625.038
1561, 629.553
1562, 634.191
1563, 638.953
1564, 643.838
1565, 648.847
1566, 653.980
1567, 659.236
1568, 664.616
1569, 670.120
1570, 675.748
1571, 681.499
1572, 687.374
1573, 693.372
1574, 699.494
1575, 705.740
1576, 712.110
1577, 718.603
1578, 725.220
1579, 731.030
1580, 731.961
1581, 738.825
1582, 745.813
1583, 752.925
1584, 760.160
1585, 767.519
1586, 775.002
1587, 782.608
1588, 790.338
1589, 792.231
1590, 798.192
1591, 806.170
1592, 814.271
1593, 822.496
1594, 830.844
1595, 837.856
1596, 544.955
1597, 544.893
1598, 545.140
1599, 545.449
1600, 545.882
1601, 546.439
1602, 547.119
1603, 547.923
1604, 548.851
1605, 549.902
1606, 551.077
1607, 552.376
1608, 553.798
1609, 555.344
1610, 557.014
1611, 558.807
1612, 560.724
1613, 562.765
1614, 564.929
1615, 567.217
1616, 569.629
1617, 572.165
1618, 574.824
1619, 577.607
1620, 580.513
1621, 583.543
1622, 585.761
1623, 586.697
1624, 589.975
1625, 592.367
1626, 593.376
1627, 596.901
1628, 600.549
1629, 604.322
1630, 608.218
1631, 612.237
1632, 616.381
1633, 620.648
1634, 625.038
1635, 629.553
1636, 634.191
1637, 638.953
1638, 643.838
1639, 648.847
1640, 653.980
1641, 659.236
1642, 664.616
1643, 670.120
1644, 675.748
1645, 681.499
1646, 687.374
1647, 693.372
1648, 699.494
1649, 705.740
1650, 712.110
1651, 718.603
1652, 725.220
1653, 731.030
1654, 731.961
1655, 738.825
1656, 745.813
1657, 752.925
1658, 760.160
1659, 767.519
1660, 775.002
1661, 782.608
1662, 790.338
1663, 792.231
1664, 798.192
1665, 806.170
1666, 814.271
1667, 822.496
1668, 830.844
1669, 837.856
1670, 544.955
1671, 544.893
1672, 545.140
1673, 545.449
1674, 545.882
1675, 546.439
1676, 547.119
1677, 547.923
1678, 548.851
1679, 549.902
1680, 551.077
1681, 552.376
1682, 553.798
1683, 555.344
1684, 557.014
1685, 558.807
1686, 560.724
1687, 562.765
1688, 564.929
1689, 567.217
1690, 569.629
1691, 572.165
1692, 574.824
1693, 577.607
1694, 580.513
1695, 583.543
1696, 585.761
1697, 586.697
1698, 589.975
1699, 592.367
1700, 593.376
1701, 596.901
1702, 600.549
1703, 604.322
1704, 608.218
1705, 612.237
1706, 616.381
1707, 620.648
1708, 625.038
1709, 629.553
1710, 634.191
1711, 638.953
1712, 643.838
1713, 648.847
1714, 653.980
1715, 659.236
1716, 664.616
1717, 670.120
1718, 675.748
1719, 681.499
1720, 687.374
1721, 693.372
1722, 699.494
1723, 705.740
1724, 712.110
1725, 718.603
1726, 725.220
1727, 731.030
1728, 731.961
1729, 738.825
1730, 745.813
1731, 752.925
1732, 760.160
1733, 767.519
1734, 775.002
1735, 782.608
1736, 790.338
1737, 792.231
1738, 798.192
1739, 806.170
1740, 814.271
1741, 822.496
1742, 830.844
1743, 837.856
1744, 544.955
1745, 544.893
1746, 545.140
1747, 545.449
1748, 545.882
1749, 546.439
1750, 547.119
1751, 547.923
1752, 548.851
1753, 549.902
1754, 551.077
1755, 552.376
1756, 553.798
1757, 555.344
1758, 557.014
1759, 558.807
1760, 560.724
1761, 562.765
1762, 564.929
1763, 567.217
1764, 569.629
1765, 572.165
1766, 574.824
1767, 577.607
1768, 580.513
1769, 583.543
1770, 585.761
1771, 586.697
1772, 589.975
1773, 592.367
1774, 593.376
1775, 596.901
1776, 600.549
1777, 604.322
1778, 608.218
1779, 612.237
1780, 616.381
1781, 620.648
1782, 625.038
1783, 629.553
1784, 634.191
1785, 638.953
1786, 643.838
1787, 648.847
1788, 653.980
1789, 659.236
1790, 664.616
1791, 670.120
1792, 675.748
1793, 681.499
1794, 687.374
1795, 693.372
1796, 699.494
1797, 705.740
1798, 712.110
1799, 718.603
1800, 725.220
1801, 731.030
1802, 731.961
1803, 738.825
1804, 745.813
1805, 752.925
1806, 760.160
1807, 767.519
1808, 775.002
1809, 782.608
1810, 790.338
1811, 792.231
1812, 798.192
1813, 806.170
1814, 814.271
1815, 822.496
1816, 830.844
1817, 837.856
1818, 544.955
1819, 544.893
1820, 545.140
1821, 545.449
1822, 545.882
1823, 546.439
1824, 547.119
1825, 547.923
1826, 548.851
1827, 549.902
1828, 551.077
1829, 552.376
1830, 553.798
1831, 555.344
1832, 557.014
1833, 558.807
1834, 560.724
1835, 562.765
1836, 564.929
1837, 567.217
1838, 569.629
1839, 572.165
1840, 574.824
1841, 577.607
1842, 580.513
1843, 583.543
1844, 585.761
1845, 586.697
1846, 589.975
1847, 592.367
1848, 593.376
1849, 596.901
1850, 600.549
1851, 604.322
1852, 608.218
1853, 612.237
1854, 616.381
1855, 620.648
1856, 625.038
1857, 629.553
1858, 634.191
1859, 638.953
1860, 643.838
1861, 648.847
1862, 653.980
1863, 659.236
1864, 664.616
1865, 670.120
1866, 675.748
1867, 681.499
1868, 687.374
1869, 693.372
1870, 699.494
1871, 705.740
1872, 712.110
1873, 718.603
1874, 725.220
1875, 731.030
1876, 731.961
1877, 738.825
1878, 745.813
1879, 752.925
1880, 760.160
1881, 767.519
1882, 775.002
1883, 782.608
1884, 790.338
1885, 792.231
1886, 798.192
1887, 806.170
1888, 814.271
1889, 822.496
1890, 830.844
1891, 837.856
1892, 544.955
1893, 544.893
1894, 545.140
1895, 545.449
1896, 545.882
1897, 546.439
1898, 547.119
1899, 547.923
1900, 548.851
1901, 549.902
1902, 551.077
1903, 552.376
1904, 553.798
1905, 555.344
1906, 557.014
1907, 558.807
1908, 560.724
1909, 562.765
1910, 564.929
1911, 567.217
1912, 569.629
1913, 572.165
1914, 574.824
1915, 577.607
1916, 580.513
1917, 583.543
1918, 585.761
1919, 586.697
1920, 589.975
1921, 592.367
1922, 593.376
1923, 596.901
1924, 600.549
1925, 604.322
1926, 608.218
1927, 612.237
1928, 616.381
1929, 620.648
1930, 625.038
1931, 629.553
1932, 634.191
1933, 638.953
1934, 643.838
1935, 648.847
1936, 653.980
1937, 659.236
1938, 664.616
1939, 670.120
1940, 675.748
1941, 681.499
1942, 687.374
1943, 693.372
1944, 699.494
1945, 705.740
1946, 712.110
1947, 718.603
1948, 725.220
1949, 731.030
1950, 731.961
1951, 738.825
1952, 745.813
1953, 752.925
1954, 760.160
1955, 767.519
1956, 775.002
1957, 782.608
1958, 790.338
1959, 792.231
1960, 798.192
1961, 806.170
1962, 814.271
1963, 822.496
1964, 830.844
1965, 837.856
1966, 544.955
1967, 544.893
1968, 545.140
1969, 545.449
1970, 545.882
1971, 546.439
1972, 547.119
1973, 547.923
1974, 548.851
1975, 549.902
1976, 551.077
1977, 552.376
1978, 553.798
1979, 555.344
1980, 557.014
1981, 558.807
1982, 560.724
1983, 562.765
1984, 564.929
1985, 567.217
1986, 569.629
1987, 572.165
1988, 574.824
1989, 577.607
1990, 580.513
1991, 583.543
1992, 585.761
1993, 586.697
1994, 589.975
1995, 592.367
1996, 593.376
1997, 596.901
1998, 600.549
1999, 604.322
2000, 608.218
2001, 612.237
2002, 616.381
2003, 620.648
2004, 625.038
2005, 629.553
2006, 634.191
2007, 638.953
2008, 643.838
2009, 648.847
2010, 653.980
2011, 659.236
2012, 664.616
2013, 670.120
2014, 675.748
2015, 681.499
2016, 687.374
2017, 693.372
2018, 699.494
2019, 705.740
2020, 712.110
2021, 718.603
2022, 725.220
2023, 731.030
2024, 731.961
2025, 738.825
2026, 745.813
2027, 752.925
2028, 760.160
2029, 767.519
2030, 775.002
2031, 782.608
2032, 790.338
2033, 792.231
2034, 798.192
2035, 806.170
2036, 814.271
2037, 822.496
2038, 830.844
2039, 837.856
2040, 544.955
2041, 544.893
2042, 545.140
2043, 545.449
2044, 545.882
2045, 546.439
2046, 547.119
2047, 547.923
2048, 548.851
2049, 549.902
2050, 551.077
2051, 552.376
2052, 553.798
2053, 555.344
2054, 557.014
2055, 558.807
2056, 560.724
2057, 562.765
2058, 564.929
2059, 567.217
2060, 569.629
2061, 572.165
2062, 574.824
2063, 577.607
2064, 580.513
2065, 583.543
2066, 585.761
2067, 586.697
2068, 589.975
2069, 592.367
2070, 593.376
2071, 596.901
2072, 600.549
2073, 604.322
2074, 608.218
2075, 612.237
2076, 616.381
2077, 620.648
2078, 625.038
2079, 629.553
2080, 634.191
2081, 638.953
2082, 643.838
2083, 648.847
2084, 653.980
2085, 659.236
2086, 664.616
2087, 670.120
2088, 675.748
2089, 681.499
2090, 687.374
2091, 693.372
2092, 699.494
2093, 705.740
2094, 712.110
2095, 718.603
2096, 725.220
2097, 731.030
2098, 731.961
2099, 738.825
2100, 745.813
2101, 752.925
2102, 760.160
2103, 767.519
2104, 775.002
2105, 782.608
2106, 790.338
2107, 792.231
2108, 798.192
2109, 806.170
2110, 814.271
2111, 822.496
2112, 830.844
2113, 837.856
2114, 544.955
2115, 544.893
2116, 545.140
2117, 545.449
2118, 545.882
2119, 546.439
2120, 547.119
2121, 547.923
2122, 548.851
2123, 549.902
2124, 551.077
2125, 552.376
2126, 553.798
2127, 555.344
2128, 557.014
2129, 558.807
2130, 560.724
2131, 562.765
2132, 564.929
2133, 567.217
2134, 569.629
2135, 572.165
2136, 574.824
2137, 577.607
2138, 580.513
2139, 583.543
2140, 585.761
2141, 586.697
2142, 589.975
2143, 592.367
2144, 593.376
2145, 596.901
2146, 600.549
2147, 604.322
2148, 608.218
2149, 612.237
2150, 616.381
2151, 620.648
2152, 625.038
2153, 629.553
2154, 634.191
2155, 638.953
2156, 643.838
2157, 648.847
2158, 653.980
2159, 659.236
2160, 664.616
2161, 670.120
2162, 675.748
2163, 681.499
2164, 687.374
2165, 693.372
2166, 699.494
2167, 705.740
2168, 712.110
2169, 718.603
2170, 725.220
2171, 731.030
2172, 731.961
2173, 738.825
2174, 745.813
2175, 752.925
2176, 760.160
2177, 767.519
2178, 775.002
2179, 782.608
2180, 790.338
2181, 792.231
2182, 798.192
2183, 806.170
2184, 814.271
2185, 822.496
2186, 830.844
2187, 837.856
2188, 544.955
2189, 544.893
2190, 545.140
2191, 545.449
2192, 545.882
2193, 546.439
2194, 547.119
2195, 547.923
2196, 548.851
2197, 549.902
2198, 551.077
2199, 552.376
2200, 553.798
2201, 555.344
2202, 557.014
2203, 558.807
2204, 560.724
2205, 562.765
2206, 564.929
2207, 567.217
2208, 569.629
2209, 572.165
2210, 574.824
2211, 577.607
2212, 580.513
2213, 583.543
2214, 585.761
2215, 586.697
2216, 589.975
2217, 592.367
2218, 593.376
2219, 596.901
2220, 600.549
2221, 604.322
2222, 608.218
2223, 612.237
2224, 616.381
2225, 620.648
2226, 625.038
2227, 629.553
2228, 634.191
2229, 638.953
2230, 643.838
2231, 648.847
2232, 653.980
2233, 659.236
2234, 664.616
2235, 670.120
2236, 675.748
2237, 681.499
2238, 687.374
2239, 693.372
2240, 699.494
2241, 705.740
2242, 712.110
2243, 718.603
2244, 725.220
2245, 731.030
2246, 731.961
2247, 738.825
2248, 745.813
2249, 752.925
2250, 760.160
2251, 767.519
2252, 775.002
2253, 782.608
2254, 790.338
2255, 792.231
2256, 798.192
2257, 806.170
2258, 814.271
2259, 822.496
2260, 830.844
2261, 837.856
2262, 544.955
2263, 544.893
2264, 545.140
2265, 545.449
2266, 545.882
2267, 546.439
2268, 547.119
2269, 547.923
2270, 548.851
2271, 549.902
2272, 551.077
2273, 552.376
2274, 553.798
2275, 555.344
2276, 557.014
2277, 558.807
2278, 560.724
2279, 562.765
2280, 564.929
2281, 567.217
2282, 569.629
2283, 572.165
2284, 574.824
2285, 577.607
2286, 580.513
2287, 583.543
2288, 585.761
2289, 586.697
2290, 589.975
2291, 592.367
2292, 593.376
2293, 596.901
2294, 600.549
2295, 604.322
2296, 608.218
2297, 612.237
2298, 616.381
2299, 620.648
2300, 625.038
2301, 629.553
2302, 634.191
2303, 638.953
2304, 643.838
2305, 648.847
2306, 653.980
2307, 659.236
2308, 664.616
2309, 670.120
2310, 675.748
2311, 681.499
2312, 687.374
2313, 693.372
2314, 699.494
2315, 705.740
2316, 712.110
2317, 718.603
2318, 725.220
2319, 731.030
2320, 731.961
2321, 738.825
2322, 745.813
2323, 752.925
2324, 760.160
2325, 767.519
2326, 775.002
2327, 782.608
2328, 790.338
2329, 792.231
2330, 798.192
2331, 806.170
2332, 814.271
2333, 822.496
2334, 830.844
2335, 837.856
2336, 544.955
2337, 544.893
2338, 545.140
2339, 545.449
2340, 545.882
2341, 546.439
2342, 547.119
2343, 547.923
2344, 548.851
2345, 549.902
2346, 551.077
2347, 552.376
2348, 553.798
2349, 555.344
2350, 557.014
2351, 558.807
2352, 560.724
2353, 562.765
2354, 564.929
2355, 567.217
2356, 569.629
2357, 572.165
2358, 574.824
2359, 577.607
2360, 580.513
2361, 583.543
2362, 585.761
2363, 586.697
2364, 589.975
2365, 592.367
2366, 593.376
2367, 596.901
2368, 600.549
2369, 604.322
2370, 608.218
2371, 612.237
2372, 616.381
2373, 620.648
2374, 625.038
2375, 629.553
2376, 634.191
2377, 638.953
2378, 643.838
2379, 648.847
2380, 653.980
2381, 659.236
2382, 664.616
2383, 670.120
2384, 675.748
2385, 681.499
2386, 687.374
2387, 693.372
2388, 699.494
2389, 705.740
2390, 712.110
2391, 718.603
2392, 725.220
2393, 731.030
2394, 731.961
2395, 738.825
2396, 745.813
2397, 752.925
2398, 760.160
2399, 767.519
2400, 775.002
2401, 782.608
2402, 790.338
2403, 792.231
2404, 798.192
2405, 806.170
2406, 814.271
2407, 822.496
2408, 830.844
2409, 837.856
2410, 544.955
2411, 544.893
2412, 545.140
2413, 545.449
2414, 545.882
2415, 546.439
2416, 547.119
2417, 547.923
2418, 548.851
2419, 549.902
2420, 551.077
2421, 552.376
2422, 553.798
2423, 555.344
2424, 557.014
2425, 558.807
2426, 560.724
2427, 562.765
2428, 564.929
2429, 567.217
2430, 569.629
2431, 572.165
2432, 574.824
2433, 577.607
2434, 580.513
2435, 583.543
2436, 585.761
2437, 586.697
2438, 589.975
2439, 592.367
2440, 593.376
2441, 596.901
2442, 600.549
2443, 604.322
2444, 608.218
2445, 612.237
2446, 616.381
2447, 620.648
2448, 625.038
2449, 629.553
2450, 634.191
2451, 638.953
2452, 643.838
2453, 648.847
2454, 653.980
2455, 659.236
2456, 664.616
2457, 670.120
2458, 675.748
2459, 681.499
2460, 687.374
2461, 693.372
2462, 699.494
2463, 705.740
2464, 712.110
2465, 718.603
2466, 725.220
2467, 731.030
2468, 731.961
2469, 738.825
2470, 745.813
2471, 752.925
2472, 760.160
2473, 767.519
2474, 775.002
2475, 782.608
2476, 790.338
2477, 792.231
2478, 798.192
2479, 806.170
2480, 814.271
2481, 822.496
2482, 830.844
2483, 837.856
2484, 544.955
2485, 544.893
2486, 545.140
2487, 545.449
2488, 545.882
2489, 546.439
2490, 547.119
2491, 547.923
2492, 548.851
2493, 549.902
2494, 551.077
2495, 552.376
2496, 553.798
2497, 555.344
2498, 557.014
2499, 558.807
2500, 560.724
2501, 562.765
2502, 564.929
2503, 567.217
2504, 569.629
2505, 572.165
2506, 574.824
2507, 577.607
2508, 580.513
2509, 583.543
2510, 585.761
2511, 586.697
2512, 589.975
2513, 592.367
2514, 593.376
2515, 596.901
2516, 600.549
2517, 604.322
2518, 608.218
2519, 612.237
2520, 616.381
2521, 620.648
2522, 625.038
2523, 629.553
2524, 634.191
2525, 638.953
2526, 643.838
2527, 648.847
2528, 653.980
2529, 659.236
2530, 664.616
2531, 670.120
2532, 675.748
2533, 681.499
2534, 687.374
2535, 693.372
2536, 699.494
2537, 705.740
2538, 712.110
2539, 718.603
2540, 725.220
2541, 731.030
2542, 731.961
2543, 738.825
2544, 745.813
2545, 752.925
2546, 760.160
2547, 767.519
2548, 775.002
2549, 782.608
2550, 790.338
2551, 792.231
2552, 798.192
2553, 806.170
2554, 814.271
2555, 822.496
2556, 830.844
2557, 837.856
2558, 544.955
2559, 544.893
2560, 545.140
2561, 545.449
2562, 545.882
2563, 546.439
2564, 547.119
2565, 547.923
2566, 548.851
2567, 549.902
2568, 551.077
2569, 552.376
2570, 553.798
2571, 555.344
2572, 557.014
2573, 558.807
2574, 560.724
2575, 562.765
2576, 564.929
2577, 567.217
2578, 569.629
2579, 572.165
2580, 574.824
2581, 577.607
2582, 580.513
2583, 583.543
2584, 585.761
2585, 586.697
2586, 589.975
2587, 592.367
2588, 593.376
2589, 596.901
2590, 600.549
2591, 604.322
2592, 608.218
2593, 612.237
2594, 616.381
2595, 620.648
2596, 625.038
2597, 629.553
2598, 634.191
2599, 638.953
2600, 643.838
2601, 648.847
2602, 653.980
2603, 659.236
2604, 664.616
2605, 670.120
2606, 675.748
2607, 681.499
2608, 687.374
2609, 693.372
2610, 699.494
2611, 705.740
2612, 712.110
2613, 718.603
2614, 725.220
2615, 731.030
2616, 731.961
2617, 738.825
2618, 745.813
2619, 752.925
2620, 760.160
2621, 767.519
2622, 775.002
2623, 782.608
2624, 790.338
2625, 792.231
2626, 798.192
2627, 806.170
2628, 814.271
2629, 822.496
2630, 830.844
2631, 837.856
2632, 544.955
2633, 544.893
2634, 545.140
2635, 545.449
2636, 545.882
2637, 546.439
2638, 547.119
2639, 547.923
2640, 548.851
2641, 549.902
2642, 551.077
2643, 552.376
2644, 553.798
2645, 555.344
2646, 557.014
2647, 558.807
2648, 560.724
2649, 562.765
2650, 564.929
2651, 567.217
2652, 569.629
2653, 572.165
2654, 574.824
2655, 577.607
2656, 580.513
2657, 583.543
2658, 585.761
2659, 586.697
2660, 589.975
2661, 592.367
2662, 593.376
2663, 596.901
2664, 600.549
2665, 604.322
2666, 608.218
2667, 612.237
2668, 616.381
2669, 620.648
2670, 625.038
2671, 629.553
2672, 634.191
2673, 638.953
2674, 643.838
2675, 648.847
2676, 653.980
2677, 659.236
2678, 664.616
2679, 670.120
2680, 675.748
2681, 681.499
2682, 687.374
2683, 693.372
2684, 699.494
2685, 705.740
2686, 712.110
2687, 718.603
2688, 725.220
2689, 731.030
2690, 731.961
2691, 738.825
2692, 745.813
2693, 752.925
2694, 760.160
2695, 767.519
2696, 775.002
2697, 782.608
2698, 790.338
2699, 792.231
2700, 798.192
2701, 806.170
2702, 814.271
2703, 822.496
2704, 830.844
2705, 837.856
2706, 544.955
2707, 544.893
2708, 545.140
2709, 545.449
2710, 545.882
2711, 546.439
2712, 547.119
2713, 547.923
2714, 548.851
2715, 549.902
2716, 551.077
2717, 552.376
2718, 553.798
2719, 555.344
2720, 557.014
2721, 558.807
2722, 560.724
2723, 562.765
2724, 564.929
2725, 567.217
2726, 569.629
2727, 572.165
2728, 574.824
2729, 577.607
2730, 580.513
2731, 583.543
2732, 585.761
2733, 586.697
2734, 589.975
2735, 592.367
2736, 593.376
2737, 596.901
2738, 600.549
2739, 604.322
2740, 608.218
2741, 612.237
2742, 616.381
2743, 620.648
2744, 625.038
2745, 629.553
2746, 634.191
2747, 638.953
2748, 643.838
2749, 648.847
2750, 653.980
2751, 659.236
2752, 664.616
2753, 670.120
2754, 675.748
2755, 681.499
2756, 687.374
2757, 693.372
2758, 699.494
2759, 705.740
2760, 712.110
2761, 718.603
2762, 725.220
2763, 731.030
2764, 731.961
2765, 738.825
2766, 745.813
2767, 752.925
2768, 760.160
2769, 767.519
2770, 775.002
2771, 782.608
2772, 790.338
2773, 792.231
2774, 798.192
2775, 806.170
2776, 814.271
2777, 822.496
2778, 830.844
2779, 837.856
2780, 544.955
2781, 544.893
2782, 545.140
2783, 545.449
2784, 545.882
2785, 546.439
2786, 547.119
2787, 547.923
2788, 548.851
2789, 549.902
2790, 551.077
2791, 552.376
2792, 553.798
2793, 555.344
2794, 557.014
2795, 558.807
2796, 560.724
2797, 562.765
2798, 564.929
2799, 567.217
2800, 569.629
2801, 572.165
2802, 574.824
2803, 577.607
2804, 580.513
2805, 583.543
2806, 585.761
2807, 586.697
2808, 589.975
2809, 592.367
2810, 738.825
2811, 731.961
2812, 745.813
2813, 752.925
2814, 760.160
2815, 767.519
2816, 775.002
2817, 782.608
2818, 790.338
2819, 792.231
2820, 798.192
2821, 806.170
2822, 814.271
2823, 822.496
2824, 830.844
2825, 837.856
2826, 544.955
2827, 544.893
2828, 545.140
2829, 545.449
2830, 545.882
2831, 546.439
2832, 547.119
2833, 547.923
2834, 548.851
2835, 549.902
2836, 551.077
2837, 552.376
2838, 553.798
2839, 555.344
2840, 557.014
2841, 558.807
2842, 560.724
2843, 562.765
2844, 564.929
2845, 567.217
2846, 569.629
2847, 572.165
2848, 574.824
2849, 577.607
2850, 580.513
2851, 583.543
2852, 585.761
2853, 586.697
2854, 589.975
2855, 592.367
2856, 745.813
2857, 738.825
2858, 752.925
2859, 760.160
2860, 767.519
2861, 775.002
2862, 782.608
2863, 790.338
2864, 792.231
2865, 798.192
2866, 806.170
2867, 814.271
2868, 822.496
2869, 830.844
2870, 837.856
2871, 544.955
2872, 544.893
2873, 545.140
2874, 545.449
2875, 545.882
2876, 546.439
2877, 547.119
2878, 547.923
2879, 548.851
2880, 549.902
2881, 551.077
2882, 552.376
2883, 553.798
2884, 555.344
2885, 557.014
2886, 558.807
2887, 560.724
2888, 562.765
2889, 564.929
2890, 567.217
2891, 569.629
2892, 572.165
2893, 574.824
2894, 577.607
2895, 580.513
2896, 583.543
2897, 585.761
2898, 586.697
2899, 589.975
2900, 592.367
2901, 760.160
2902, 752.925
2903, 767.519
2904, 775.002
2905, 782.608
2906, 790.338
2907, 792.231
2908, 798.192
2909, 806.170
2910, 814.271
2911, 822.496
2912, 830.844
2913, 837.856
2914, 544.955
2915, 544.893
2916, 545.140
2917, 545.449
2918, 545.882
2919, 546.439
2920, 547.119
2921, 547.923
2922, 548.851
2923, 549.902
2924, 551.077
2925, 552.376
2926, 553.798
2927, 555.344
2928, 557.014
2929, 558.807
2930, 560.724
2931, 562.765
2932, 564.929
2933, 567.217
2934, 569.629
2935, 572.165
2936, 574.824
2937, 577.607
2938, 580.513
2939, 583.543
2940, 585.761
2941, 586.697
2942, 589.975
2943, 592.367
2944, 767.519
2945, 760.160
2946, 775.002
2947, 782.608
2948, 790.338
2949, 792.231
2950, 798.192
2951, 806.170
2952, 814.271
2953, 822.496
2954, 830.844
2955, 837.856
2956, 544.955
2957, 544.893
2958, 545.140
2959, 545.449
2960, 545.882
2961, 546.439
2962, 547.119
2963, 547.923
2964, 548.851
2965, 549.902
2966, 551.077
2967, 552.376
2968, 553.798
2969, 555.344
2970, 557.014
2971, 558.807
2972, 560.724
2973, 562.765
2974, 564.929
2975, 567.217
2976, 569.629
2977, 572.165
2978, 574.824
2979, 577.607
2980, 580.513
2981, 583.543
2982, 585.761
2983, 586.697
2984, 589.975
2985, 592.367
2986, 775.002
2987, 767.519
2988, 782.608
2989, 790.338
2990, 792.231
2991, 798.192
2992, 806.170
2993, 814.271
2994, 822.496
2995, 830.844
2996, 837.856
2997, 544.955
2998, 544.893
2999, 545.140
3000, 545.449
3001, 545.882
3002, 546.439
3003, 547.119
3004, 547.923
3005, 548.851
3006, 549.902
3007, 551.077
3008, 552.376
3009, 553.798
3010, 555.344
3011, 557.014
3012, 558.807
3013, 560.724
3014, 562.765
3015, 564.929
3016, 567.217
3017, 569.629
3018, 572.165
3019, 574.824
3020, 577.607
3021, 580.513
3022, 583.543
3023, 585.761
3024, 586.697
3025, 589.975
3026, 790.338
3027, 782.608
3028, 792.231
3029, 798.192
3030, 806.170
3031, 814.271
3032, 822.496
3033, 830.844
3034, 837.856
3035, 544.955
3036, 544.893
3037, 545.140
3038, 545.449
3039, 545.882
3040, 546.439
3041, 547.119
3042, 547.923
3043, 548.851
3044, 549.902
3045, 551.077
3046, 552.376
3047, 553.798
3048, 555.344
3049, 557.014
3050, 558.807
3051, 560.724
3052, 562.765
3053, 564.929
3054, 567.217
3055, 569.629
3056, 572.165
3057, 574.824
3058, 577.607
3059, 580.513
3060, 583.543
3061, 585.761
3062, 586.697
3063, 589.975
3064, 792.231
3065, 790.338
3066, 798.192
3067, 806.170
3068, 814.271
3069, 822.496
3070, 830.844
3071, 837.856
3072, 544.955
3073, 544.893
3074, 545.140
3075, 545.449
3076, 545.882
3077, 546.439
3078, 547.119
3079, 547.923
3080, 548.851
3081, 549.902
3082, 551.077
3083, 552.376
3084, 553.798
3085, 555.344
3086, 557.014
3087, 558.807
3088, 560.724
3089, 562.765
3090, 564.929
3091, 567.217
3092, 569.629
3093, 572.165
3094, 574.824
3095, 577.607
3096, 580.513
3097, 583.543
3098, 585.761
3099, 586.697
3100, 589.975
3101, 544.955
3102, 544.893
3103, 545.140
3104, 545.449
3105, 545.882
3106, 546.439
3107, 547.119
3108, 547.923
3109, 548.851
3110, 549.902
3111, 551.077
3112, 552.376
3113, 553.798
3114, 555.344
3115, 557.014
3116, 558.807
3117, 560.724
3118, 562.765
3119, 564.929
3120, 567.217
3121, 569.629
3122, 572.165
3123, 574.824
3124, 577.607
3125, 580.513
3126, 583.543
3127, 585.761
3128, 586.697
3129, 589.975
3130, 544.955
3131, 544.893
3132, 545.140
3133, 545.449
3134, 545.882
3135, 546.439
3136, 547.119
3137, 547.923
3138, 548.851
3139, 549.902
3140, 551.077
3141, 552.376
3142, 553.798
3143, 555.344
3144, 557.014
3145, 558.807
3146, 560.724
3147, 562.765
3148, 564.929
3149, 567.217
3150, 569.629
3151, 572.165
3152, 574.824
3153, 577.607
3154, 580.513
3155, 583.543
3156, 585.761
3157, 586.697
3158, 589.975
3159, 544.955
3160, 544.893
3161, 545.140
3162, 545.449
3163, 545.882
3164, 546.439
3165, 547.119
3166, 547.923
3167, 548.851
3168, 549.902
3169, 551.077
3170, 552.376
3171, 553.798
3172, 555.344
3173, 557.014
3174, 558.807
3175, 560.724
3176, 562.765
3177, 564.929
3178, 567.217
3179, 569.629
3180, 572.165
3181, 574.824
3182, 577.607
3183, 580.513
3184, 583.543
3185, 585.761
3186, 586.697
3187, 589.975
3188, 544.955
3189, 544.893
3190, 545.140
3191, 545.449
3192, 545.882
3193, 546.439
3194, 547.119
3195, 547.923
3196, 548.851
3197, 549.902
3198, 551.077
3199, 552.376
3200, 553.798
3201, 555.344
3202, 557.014
3203, 558.807
3204, 560.724
3205, 562.765
3206, 564.929
3207, 567.217
3208, 569.629
3209, 572.165
3210, 574.824
3211, 577.607
3212, 580.513
3213, 583.543
3214, 585.761
3215, 586.697
3216, 589.975
3217, 544.955
3218, 544.893
3219, 545.140
3220, 545.449
3221, 545.882
3222, 546.439
3223, 547.119
3224, 547.923
3225, 548.851
3226, 549.902
3227, 551.077
3228, 552.376
3229, 553.798
3230, 555.344
3231, 557.014
3232, 558.807
3233, 560.724
3234, 562.765
3235, 564.929
3236, 567.217
3237, 569.629
3238, 572.165
3239, 574.824
3240, 577.607
3241, 580.513
3242, 583.543
3243, 585.761
3244, 586.697
3245, 589.975
3246, 544.955
3247, 544.893
3248, 545.140
3249, 545.449
3250, 545.882
3251, 546.439
3252, 547.119
3253, 547.923
3254, 548.851
3255, 549.902
3256, 551.077
3257, 552.376
3258, 553.798
3259, 555.344
3260, 557.014
3261, 558.807
3262, 560.724
3263, 562.765
3264, 564.929
3265, 567.217
3266, 569.629
3267, 572.165
3268, 574.824
3269, 577.607
3270, 580.513
3271, 583.543
3272, 585.761
3273, 586.697
3274, 589.975
3275, 544.955
3276, 544.893
3277, 545.140
3278, 545.449
3279, 545.882
3280, 546.439
3281, 547.119
3282, 547.923
3283, 548.851
3284, 549.902
3285, 551.077
3286, 552.376
3287, 553.798
3288, 555.344
3289, 557.014
3290, 558.807
3291, 560.724
3292, 562.765
3293, 564.929
3294, 567.217
3295, 569.629
3296, 572.165
3297, 574.824
3298, 577.607
3299, 580.513
3300, 583.543
3301, 585.761
3302, 586.697
3303, 589.975
3304, 544.955
3305, 544.893
3306, 545.140
3307, 545.449
3308, 545.882
3309, 546.439
3310, 547.119
3311, 547.923
3312, 548.851
3313, 549.902
3314, 551.077
3315, 552.376
3316, 553.798
3317, 555.344
3318, 557.014
3319, 558.807
3320, 560.724
3321, 562.765
3322, 564.929
3323, 567.217
3324, 569.629
3325, 572.165
3326, 574.824
3327, 577.607
3328, 580.513
3329, 583.543
3330, 585.761
3331, 586.697
3332, 589.975
3333, 544.955
3334, 544.893
3335, 545.140
3336, 545.449
3337, 545.882
3338, 546.439
3339, 547.119
3340, 547.923
3341, 548.851
3342, 549.902
3343, 551.077
3344, 552.376
3345, 553.798
3346, 555.344
3347, 557.014
3348, 558.807
3349, 560.724
3350, 562.765
3351, 564.929
3352, 567.217
3353, 569.629
3354, 572.165
3355, 574.824
3356, 577.607
3357, 580.513
3358, 583.543
3359, 585.761
3360, 586.697
3361, 589.975
3362, 544.955
3363, 544.893
3364, 545.140
3365, 545.449
3366, 545.882
3367, 546.439
3368, 547.119
3369, 547.923
3370, 548.851
3371, 549.902
3372, 551.077
3373, 552.376
3374, 553.798
3375, 555.344
3376, 557.014
3377, 558.807
3378, 560.724
3379, 562.765
3380, 564.929
3381, 567.217
3382, 569.629
3383, 572.165
3384, 574.824
3385, 577.607
3386, 580.513
3387, 583.543
3388, 585.761
3389, 586.697
3390, 544.955
3391, 544.893
3392, 545.140
3393, 545.449
3394, 545.882
3395, 546.439
3396, 547.119
3397, 547.923
3398, 548.851
3399, 549.902
3400, 551.077
3401, 552.376
3402, 553.798
3403, 555.344
3404, 557.014
3405, 558.807
3406, 560.724
3407, 562.765
3408, 564.929
3409, 567.217
3410, 569.629
3411, 572.165
3412, 574.824
3413, 577.607
3414, 580.513
3415, 583.543
3416, 585.761
3417, 586.697
3418, 544.955
3419, 544.893
3420, 545.140
3421, 545.449
3422, 545.882
3423, 546.439
3424, 547.119
3425, 547.923
3426, 548.851
3427, 549.902
3428, 551.077
3429, 552.376
3430, 553.798
3431, 555.344
3432, 557.014
3433, 558.807
3434, 560.724
3435, 562.765
3436, 564.929
3437, 567.217
3438, 569.629
3439, 572.165
3440, 574.824
3441, 577.607
3442, 580.513
3443, 583.543
3444, 585.761
3445, 586.697
3446, 544.955
3447, 544.893
3448, 545.140
3449, 545.449
3450, 545.882
3451, 546.439
3452, 547.119
3453, 547.923
3454, 548.851
3455, 549.902
3456, 551.077
3457, 552.376
3458, 553.798
3459, 555.344
3460, 557.014
3461, 558.807
3462, 560.724
3463, 562.765
3464, 564.929
3465, 567.217
3466, 569.629
3467, 572.165
3468, 574.824
3469, 577.607
3470, 580.513
3471, 583.543
3472, 585.761
3473, 586.697
3474, 544.955
3475, 544.893
3476, 545.140
3477, 545.449
3478, 545.882
3479, 546.439
3480, 547.119
3481, 547.923
3482, 548.851
3483, 549.902
3484, 551.077
3485, 552.376
3486, 553.798
3487, 555.344
3488, 557.014
3489, 558.807
3490, 560.724
3491, 562.765
3492, 564.929
3493, 567.217
3494, 569.629
3495, 572.165
3496, 574.824
3497, 577.607
3498, 580.513
3499, 583.543
3500, 585.761
3501, 586.697
3502, 544.955
3503, 544.893
3504, 545.140
3505, 545.449
3506, 545.882
3507, 546.439
3508, 547.119
3509, 547.923
3510, 548.851
3511, 549.902
3512, 551.077
3513, 552.376
3514, 553.798
3515, 555.344
3516, 557.014
3517, 558.807
3518, 560.724
3519, 562.765
3520, 564.929
3521, 567.217
3522, 569.629
3523, 572.165
3524, 574.824
3525, 577.607
3526, 580.513
3527, 583.543
3528, 585.761
3529, 586.697
3530, 544.955
3531, 544.893
3532, 545.140
3533, 545.449
3534, 545.882
3535, 546.439
3536, 547.119
3537, 547.923
3538, 548.851
3539, 549.902
3540, 551.077
3541, 552.376
3542, 553.798
3543, 555.344
3544, 557.014
3545, 558.807
3546, 560.724
3547, 562.765
3548, 564.929
3549, 567.217
3550, 569.629
3551, 572.165
3552, 574.824
3553, 577.607
3554, 580.513
3555, 583.543
3556, 585.761
3557, 586.697
3558, 544.955
3559, 544.893
3560, 545.140
3561, 545.449
3562, 545.882
3563, 546.439
3564, 547.119
3565, 547.923
3566, 548.851
3567, 549.902
3568, 551.077
3569, 552.376
3570, 553.798
3571, 555.344
3572, 557.014
3573, 558.807
3574, 560.724
3575, 562.765
3576, 564.929
3577, 567.217
3578, 569.629
3579, 572.165
3580, 574.824
3581, 577.607
3582, 580.513
3583, 583.543
3584, 585.761
3585, 586.697
3586, 544.955
3587, 544.893
3588, 545.140
3589, 545.449
3590, 545.882
3591, 546.439
3592, 547.119
3593, 547.923
3594, 548.851
3595, 549.902
3596, 551.077
3597, 552.376
3598, 553.798
3599, 555.344
3600, 557.014
3601, 558.807
3602, 560.724
3603, 562.765
3604, 564.929
3605, 567.217
3606, 569.629
3607, 572.165
3608, 574.824
3609, 577.607
3610, 580.513
3611, 583.543
3612, 585.761
3613, 586.697
3614, 544.955
3615, 544.893
3616, 545.140
3617, 545.449
3618, 545.882
3619, 546.439
3620, 547.119
3621, 547.923
3622, 548.851
3623, 549.902
3624, 551.077
3625, 552.376
3626, 553.798
3627, 555.344
3628, 557.014
3629, 558.807
3630, 560.724
3631, 562.765
3632, 564.929
3633, 567.217
3634, 569.629
3635, 572.165
3636, 574.824
3637, 577.607
3638, 580.513
3639, 583.543
3640, 585.761
3641, 544.955
3642, 544.893
3643, 545.140
3644, 545.449
3645, 545.882
3646, 546.439
3647, 547.119
3648, 547.923
3649, 548.851
3650, 549.902
3651, 551.077
3652, 552.376
3653, 553.798
3654, 555.344
3655, 557.014
3656, 558.807
3657, 560.724
3658, 562.765
3659, 564.929
3660, 567.217
3661, 569.629
3662, 572.165
3663, 574.824
3664, 577.607
3665, 580.513
3666, 583.543
3667, 585.761
*NODE FILE
U
*EL FILE
S
*EL PRINT, ELSET=DISC
S
*END STEP
